     Program PWSCF v.6.7MaX starts on  6Dec2021 at  0:25:19

     R & G space division:  proc/nbgrp/npool/nimage =      32
     Reading input from au_surface.100.k.qe.4_4_1.in

     Current dimensions of program PWSCF are:
     Max number of different atomic species (ntypx) = 10
     Max number of k-points (npk) =  40000
     Max angular momentum in pseudopotentials (lmaxx) =  3

     Found symmetry operation: I + (  0.2500  0.2500  0.0000)
     This is a supercell, fractional translations are disabled

     bravais-lattice index     =            8
     lattice parameter (alat)  =      15.7652  a.u.
     unit-cell volume          =    6655.8994 (a.u.)^3
     number of atoms/cell      =           16
     number of atomic types    =            1
     number of electrons       =       176.00
     number of Kohn-Sham states=          106
     kinetic-energy cutoff     =      30.0000  Ry
     charge density cutoff     =     300.0000  Ry
     scf convergence threshold =      1.0E-06
     mixing beta               =       0.3000
     number of iterations used =            8  plain     mixing
     energy convergence thresh.=      1.0E-04
     force convergence thresh. =      1.0E-03
     Exchange-correlation= SLA  PW   PBE  PBE
                           (   1   4   3   4   0   0   0)
     nstep                     =           50

     celldm(1)=  15.765191  celldm(2)=   1.000000  celldm(3)=   1.698670
     celldm(4)=   0.000000  celldm(5)=   0.000000  celldm(6)=   0.000000

     crystal axes: (cart. coord. in units of alat)
               a(1) = (   1.000000   0.000000   0.000000 )
               a(2) = (   0.000000   1.000000   0.000000 )
               a(3) = (   0.000000   0.000000   1.698670 )

     reciprocal axes: (cart. coord. in units 2 pi/alat)
               b(1) = (  1.000000  0.000000  0.000000 )
               b(2) = (  0.000000  1.000000  0.000000 )
               b(3) = (  0.000000  0.000000  0.588696 )

     PseudoPot. # 1 for Au read from file:
     /expanse/lustre/projects/csd622/tpascal/nano110/qe/pseudo/au_pbe_v1.uspp.F.UPF
     MD5 check sum: 9d7f43293ad2c663164586bc4b293ffc
     Pseudo is Ultrasoft + core correction, Zval = 11.0
     Generated by new atomic code, or converted to UPF format
     Using radial grid of  985 points,  7 beta functions with:
                l(1) =   0
                l(2) =   0
                l(3) =   1
                l(4) =   1
                l(5) =   2
                l(6) =   2
                l(7) =   3
     Q(r) pseudized with  6 coefficients,  rinner =    1.900   1.900   1.900
                                                       1.900   1.900   1.900
                                                       1.900

     atomic species   valence    mass     pseudopotential
        Au            11.00   196.96655     Au( 1.00)

      8 Sym. Ops. (no inversion) found

                                    s                        frac. trans.

      isym =  1     identity

 cryst.   s( 1) = (     1          0          0      )
                  (     0          1          0      )
                  (     0          0          1      )

 cart.    s( 1) = (  1.0000000  0.0000000  0.0000000 )
                  (  0.0000000  1.0000000  0.0000000 )
                  (  0.0000000  0.0000000  1.0000000 )

      isym =  2     180 deg rotation - cart. axis [0,0,1]

[...]

      isym =  4      90 deg rotation - cart. axis [0,0,1]

[...]

      isym =  5     inv. 180 deg rotation - cart. axis [0,1,0]

[...]

      isym =  8     inv. 180 deg rotation - cart. axis [1,-1,0]

 cryst.   s( 8) = (     0          1          0      )
                  (     1          0          0      )
                  (     0          0          1      )

 cart.    s( 8) = (  0.0000000  1.0000000  0.0000000 )
                  (  1.0000000  0.0000000  0.0000000 )
                  (  0.0000000  0.0000000  1.0000000 )

     point group C_4v (4mm)
     there are  5 classes
     the character table:

       E     2C4   C2    2s_v  2s_d
A_1    1.00  1.00  1.00  1.00  1.00
A_2    1.00  1.00  1.00 -1.00 -1.00
B_1    1.00 -1.00  1.00  1.00 -1.00
B_2    1.00 -1.00  1.00 -1.00  1.00
E      2.00  0.00 -2.00  0.00  0.00

     the symmetry operations in each class and the name of the first element:

     E        1
          identity
     2C4      3    4
           90 deg rotation - cart. axis [0,0,-1]
     C2       2
          180 deg rotation - cart. axis [0,0,1]
     2s_v     5    6
          inv. 180 deg rotation - cart. axis [0,1,0]
     2s_d     7    8
          inv. 180 deg rotation - cart. axis [1,1,0]

   Cartesian axes

     site n.     atom                  positions (alat units)
         1           Au  tau(   1) = (   0.0000000   0.0000000   0.0000000  )
         2           Au  tau(   2) = (   0.0000000   0.2499999   0.2499999  )
         3           Au  tau(   3) = (   0.2499999   0.0000000   0.2499999  )
         4           Au  tau(   4) = (   0.2499999   0.2499999   0.0000000  )
         5           Au  tau(   5) = (   0.0000000   0.4999998   0.0000000  )
         6           Au  tau(   6) = (   0.0000000   0.7499996   0.2499999  )
         7           Au  tau(   7) = (   0.2499999   0.4999998   0.2499999  )
         8           Au  tau(   8) = (   0.2499999   0.7499996   0.0000000  )
         9           Au  tau(   9) = (   0.4999998   0.0000000   0.0000000  )
        10           Au  tau(  10) = (   0.4999998   0.2499999   0.2499999  )
        11           Au  tau(  11) = (   0.7499996   0.0000000   0.2499999  )
        12           Au  tau(  12) = (   0.7499996   0.2499999   0.0000000  )
        13           Au  tau(  13) = (   0.4999998   0.4999998   0.0000000  )
        14           Au  tau(  14) = (   0.4999998   0.7499996   0.2499999  )
        15           Au  tau(  15) = (   0.7499996   0.4999998   0.2499999  )
        16           Au  tau(  16) = (   0.7499996   0.7499996   0.0000000  )

   Crystallographic axes

     site n.     atom                  positions (cryst. coord.)
         1           Au  tau(   1) = (  0.0000000  0.0000000  0.0000000  )
         2           Au  tau(   2) = (  0.0000000  0.2499999  0.1471739  )
         3           Au  tau(   3) = (  0.2499999  0.0000000  0.1471739  )
         4           Au  tau(   4) = (  0.2499999  0.2499999  0.0000000  )
         5           Au  tau(   5) = (  0.0000000  0.4999998  0.0000000  )
         6           Au  tau(   6) = (  0.0000000  0.7499996  0.1471739  )
         7           Au  tau(   7) = (  0.2499999  0.4999998  0.1471739  )
         8           Au  tau(   8) = (  0.2499999  0.7499996  0.0000000  )
         9           Au  tau(   9) = (  0.4999998  0.0000000  0.0000000  )
        10           Au  tau(  10) = (  0.4999998  0.2499999  0.1471739  )
        11           Au  tau(  11) = (  0.7499996  0.0000000  0.1471739  )
        12           Au  tau(  12) = (  0.7499996  0.2499999  0.0000000  )
        13           Au  tau(  13) = (  0.4999998  0.4999998  0.0000000  )
        14           Au  tau(  14) = (  0.4999998  0.7499996  0.1471739  )
        15           Au  tau(  15) = (  0.7499996  0.4999998  0.1471739  )
        16           Au  tau(  16) = (  0.7499996  0.7499996  0.0000000  )

     number of k points=     6  Gaussian smearing, width (Ry)=  0.0030
                       cart. coord. in units 2pi/alat
        k(    1) = (   0.0000000   0.0000000   0.0000000), wk =   0.1250000
        k(    2) = (   0.0000000   0.2500000   0.0000000), wk =   0.5000000
        k(    3) = (   0.0000000  -0.5000000   0.0000000), wk =   0.2500000
        k(    4) = (   0.2500000   0.2500000   0.0000000), wk =   0.5000000
        k(    5) = (   0.2500000  -0.5000000   0.0000000), wk =   0.5000000
        k(    6) = (  -0.5000000  -0.5000000   0.0000000), wk =   0.1250000

                       cryst. coord.
        k(    1) = (   0.0000000   0.0000000   0.0000000), wk =   0.1250000
        k(    2) = (   0.0000000   0.2500000   0.0000000), wk =   0.5000000
        k(    3) = (   0.0000000  -0.5000000   0.0000000), wk =   0.2500000
        k(    4) = (   0.2500000   0.2500000   0.0000000), wk =   0.5000000
        k(    5) = (   0.2500000  -0.5000000   0.0000000), wk =   0.5000000
        k(    6) = (  -0.5000000  -0.5000000   0.0000000), wk =   0.1250000

     Check: negative core charge=   -0.000004

     Initial potential from superposition of free atoms

     starting charge  175.99804, renormalised to  176.00000

     negative rho (up, down):  2.645E-05 0.000E+00
     Starting wfcs are  144 randomized atomic wfcs

     Self-consistent Calculation

     iteration #  1     ecut=    30.00 Ry     beta= 0.30
     Davidson diagonalization with overlap
     ethr =  1.00E-02,  avg # of iterations =  2.0

     Threshold (ethr) on eigenvalues was too large:
     Diagonalizing with lowered threshold

     Davidson diagonalization with overlap
     ethr =  3.91E-04,  avg # of iterations =  2.0

     negative rho (up, down):  1.620E-05 0.000E+00

     total energy              =   -1839.11807281 Ry
     estimated scf accuracy    <       0.78918446 Ry

[...]

     End of self-consistent calculation

          k = 0.0000 0.0000 0.0000 ( 18535 PWs)   bands (ev):

    -6.7909  -5.0735  -4.9220  -4.9219  -4.9219  -4.9219  -4.8412  -4.8412
    -4.8412  -4.8412  -4.8301  -4.6852  -4.6851  -4.3616  -4.3616  -3.9918
    -3.9918  -3.9918  -3.9918  -3.8898  -3.8138  -3.8138  -3.8138  -3.8138
    -3.4915  -3.4915  -3.4914  -3.4914  -3.3548  -3.3548  -3.3548  -3.3548
    -2.9519  -2.9519  -2.9519  -2.9519  -2.9310  -2.9310  -2.9310  -2.9310
    -2.8607  -2.8607  -2.8607  -2.8607  -2.7977  -2.7977  -2.7977  -2.7977
    -2.7283  -2.7283  -2.5210  -2.3009  -2.3009  -2.3009  -2.3008  -2.1378
    -2.1378  -2.1378  -2.1378  -2.0635  -2.0635  -2.0499  -2.0499  -2.0499
    -2.0499  -1.7930  -1.6732  -1.6731  -1.5059  -1.5059  -1.5059  -1.5059
    -1.5043  -1.5043  -1.5042  -1.5042  -1.4937  -1.4937  -1.4937  -1.4937
    -1.3418  -1.3418  -1.2723  -1.2307  -0.7103  -0.7102   0.8860   0.8860
     0.8860   0.8860   1.0533   1.0533   1.0533   1.0533   2.1847   3.3232
     3.3232   3.3232   3.3232   3.9936   3.9936   5.2064   5.4535   5.4535
     5.4537   5.4537

     occupation numbers
     1.0000   1.0000   1.0000   1.0000   1.0000   1.0000   1.0000   1.0000
     1.0000   1.0000   1.0000   1.0000   1.0000   1.0000   1.0000   1.0000
     1.0000   1.0000   1.0000   1.0000   1.0000   1.0000   1.0000   1.0000
     1.0000   1.0000   1.0000   1.0000   1.0000   1.0000   1.0000   1.0000
     1.0000   1.0000   1.0000   1.0000   1.0000   1.0000   1.0000   1.0000
     1.0000   1.0000   1.0000   1.0000   1.0000   1.0000   1.0000   1.0000
     1.0000   1.0000   1.0000   1.0000   1.0000   1.0000   1.0000   1.0000
     1.0000   1.0000   1.0000   1.0000   1.0000   1.0000   1.0000   1.0000
     1.0000   1.0000   1.0000   1.0000   1.0000   1.0000   1.0000   1.0000
     1.0000   1.0000   1.0000   1.0000   1.0000   1.0000   1.0000   1.0000
     1.0000   1.0000   1.0000   1.0000   1.0000   1.0000   0.0000   0.0000
     0.0000   0.0000   0.0000   0.0000   0.0000   0.0000   0.0000   0.0000
[...]
Au            6.2569641350        4.1712880000        2.0472303939
Au            6.2569605697        6.2569605697        0.0382208104

     Writing output data file ./surface.save/
     NEW-OLD atomic charge density approx. for the potential

     Check: negative core charge=   -0.000004

[...]

     Self-consistent Calculation

[...]

     Threshold (ethr) on eigenvalues was too large:
     Diagonalizing with lowered threshold

     Davidson diagonalization with overlap
     ethr =  1.75E-08,  avg # of iterations =  6.0

[...]

     total energy              =   -1839.20291184 Ry
     estimated scf accuracy    <       0.00000003 Ry

     iteration #  6     ecut=    30.00 Ry     beta= 0.30
     Davidson diagonalization with overlap
     ethr =  1.56E-11,  avg # of iterations =  3.0

[...]

     End of self-consistent calculation

[...]

          k = 0.2500-0.5000 0.0000 ( 18486 PWs)   bands (ev):

[...]

          k =-0.5000-0.5000 0.0000 ( 18528 PWs)   bands (ev):

    -5.8660  -5.8658  -5.8658  -5.8657  -4.8383  -4.8382  -4.8382  -4.8382
    -4.4844  -4.4844  -4.4844  -4.4844  -4.4843  -4.4843  -4.4842  -4.4842
    -4.0408  -4.0408  -4.0407  -4.0407  -4.0406  -4.0406  -4.0405  -4.0405
    -3.9476  -3.9475  -3.9475  -3.9475  -3.2181  -3.2181  -3.2181  -3.2180
    -3.2007  -3.2007  -3.2007  -3.2006  -2.8114  -2.8114  -2.8114  -2.8114
    -2.6691  -2.6691  -2.6691  -2.6691  -2.6691  -2.6691  -2.6691  -2.6691
    -2.4743  -2.4743  -2.4743  -2.4742  -2.4735  -2.4735  -2.4734  -2.4734
    -1.9213  -1.9213  -1.9212  -1.9212  -1.9212  -1.9212  -1.9212  -1.9212
    -1.8766  -1.8765  -1.8765  -1.8765  -1.5241  -1.5241  -1.5241  -1.5240
    -1.4815  -1.4815  -1.4814  -1.4814  -1.4814  -1.4814  -1.4814  -1.4814
    -1.1610  -1.1610  -1.1610  -1.1610  -0.0068  -0.0067  -0.0067  -0.0067
     1.9156   1.9156   1.9157   1.9157   1.9157   1.9157   1.9157   1.9158
     4.1030   4.1030   4.1030   4.1031   4.8684   4.8684   4.8684   4.8685
     4.8685   4.8685

     occupation numbers
     1.0000   1.0000   1.0000   1.0000   1.0000   1.0000   1.0000   1.0000
     1.0000   1.0000   1.0000   1.0000   1.0000   1.0000   1.0000   1.0000
     1.0000   1.0000   1.0000   1.0000   1.0000   1.0000   1.0000   1.0000
     1.0000   1.0000   1.0000   1.0000   1.0000   1.0000   1.0000   1.0000
     1.0000   1.0000   1.0000   1.0000   1.0000   1.0000   1.0000   1.0000
     1.0000   1.0000   1.0000   1.0000   1.0000   1.0000   1.0000   1.0000
     1.0000   1.0000   1.0000   1.0000   1.0000   1.0000   1.0000   1.0000
     1.0000   1.0000   1.0000   1.0000   1.0000   1.0000   1.0000   1.0000
     1.0000   1.0000   1.0000   1.0000   1.0000   1.0000   1.0000   1.0000
     1.0000   1.0000   1.0000   1.0000   1.0000   1.0000   1.0000   1.0000
     1.0000   1.0000   1.0000   1.0000   1.0000   1.0000   1.0000   1.0000
     0.0000   0.0000   0.0000   0.0000   0.0000   0.0000   0.0000   0.0000
     0.0000   0.0000   0.0000   0.0000   0.0000   0.0000   0.0000   0.0000
     0.0000   0.0000

     the Fermi energy is     0.3578 ev

!    total energy              =   -1839.20291185 Ry
     estimated scf accuracy    <          3.5E-09 Ry
     smearing contrib. (-TS)   =      -0.00081490 Ry
     internal energy E=F+TS    =   -1839.20209695 Ry

     The total energy is F=E-TS. E is the sum of the following terms:
     one-electron contribution =   -3640.17064072 Ry
     hartree contribution      =    1947.67706616 Ry
     xc contribution           =    -994.61539666 Ry
     ewald contribution        =     847.90687427 Ry

     convergence has been achieved in   6 iterations

     negative rho (up, down):  7.843E-05 0.000E+00

     Forces acting on atoms (cartesian axes, Ry/au):

     atom    1 type  1   force =     0.00000000    0.00000000    0.00002717
     atom    2 type  1   force =     0.00000000    0.00000714   -0.00003708
     atom    3 type  1   force =     0.00000714    0.00000000   -0.00003708
     atom    4 type  1   force =     0.00000744    0.00000744    0.00004542
     atom    5 type  1   force =     0.00000000    0.00000000    0.00003661
     atom    6 type  1   force =     0.00000000   -0.00000714   -0.00003708
     atom    7 type  1   force =     0.00000524    0.00000000   -0.00004532
     atom    8 type  1   force =     0.00000744   -0.00000744    0.00004542
     atom    9 type  1   force =     0.00000000    0.00000000    0.00003661
     atom   10 type  1   force =     0.00000000    0.00000524   -0.00004532
     atom   11 type  1   force =    -0.00000714    0.00000000   -0.00003708
     atom   12 type  1   force =    -0.00000744    0.00000744    0.00004542
     atom   13 type  1   force =     0.00000000    0.00000000    0.00004750
     atom   14 type  1   force =     0.00000000   -0.00000524   -0.00004532
     atom   15 type  1   force =    -0.00000524    0.00000000   -0.00004532
     atom   16 type  1   force =    -0.00000744   -0.00000744    0.00004542
     The non-local contrib.  to forces
     atom    1 type  1   force =     0.00000000    0.00000000    0.01523895
     atom    2 type  1   force =     0.00000000    0.00000310   -0.01524592
     atom    3 type  1   force =     0.00000310    0.00000000   -0.01524592
     atom    4 type  1   force =     0.00000417    0.00000417    0.01524859
     atom    5 type  1   force =     0.00000000    0.00000000    0.01523711
     atom    6 type  1   force =     0.00000000   -0.00000310   -0.01524592
     atom    7 type  1   force =     0.00000341    0.00000000   -0.01524285
     atom    8 type  1   force =     0.00000417   -0.00000417    0.01524859
     atom    9 type  1   force =     0.00000000    0.00000000    0.01523711
     atom   10 type  1   force =     0.00000000    0.00000341   -0.01524285
     atom   11 type  1   force =    -0.00000310    0.00000000   -0.01524592
     atom   12 type  1   force =    -0.00000417    0.00000417    0.01524859
     atom   13 type  1   force =     0.00000000    0.00000000    0.01522902
     atom   14 type  1   force =     0.00000000   -0.00000341   -0.01524285
     atom   15 type  1   force =    -0.00000341    0.00000000   -0.01524285
     atom   16 type  1   force =    -0.00000417   -0.00000417    0.01524859
     The ionic contribution  to forces
     atom    1 type  1   force =    -0.00003943   -0.00003943  -32.82290462
     atom    2 type  1   force =    -0.00003942    0.00071610   32.82722764
     atom    3 type  1   force =     0.00071610   -0.00003942   32.82722764
     atom    4 type  1   force =     0.00081880    0.00081880  -32.83135002
     atom    5 type  1   force =    -0.00003943    0.00001508  -32.82291376
     atom    6 type  1   force =    -0.00003942   -0.00069175   32.82721018
     atom    7 type  1   force =     0.00092647    0.00001508   32.82690630
     atom    8 type  1   force =     0.00081880   -0.00079446  -32.83133256
     atom    9 type  1   force =     0.00001508   -0.00003943  -32.82291376
     atom   10 type  1   force =     0.00001508    0.00092647   32.82690630
     atom   11 type  1   force =    -0.00069175   -0.00003942   32.82721018
     atom   12 type  1   force =    -0.00079446    0.00081880  -32.83133256
     atom   13 type  1   force =     0.00001508    0.00001508  -32.82240355
     atom   14 type  1   force =     0.00001508   -0.00090211   32.82688884
     atom   15 type  1   force =    -0.00090211    0.00001508   32.82688884
     atom   16 type  1   force =    -0.00079446   -0.00079446  -32.83131509
     The local contribution  to forces
     atom    1 type  1   force =    -0.00000000   -0.00000000   32.77849544
     atom    2 type  1   force =    -0.00000000   -0.00065093  -32.78280772
     atom    3 type  1   force =    -0.00065093   -0.00000000  -32.78280772
     atom    4 type  1   force =    -0.00075182   -0.00075182   32.78698752
     atom    5 type  1   force =    -0.00000000    0.00004951   32.77851807
     atom    6 type  1   force =    -0.00000000    0.00074994  -32.78280772
     atom    7 type  1   force =    -0.00085721    0.00004951  -32.78251273
     atom    8 type  1   force =    -0.00075182    0.00085084   32.78698752
     atom    9 type  1   force =     0.00004951   -0.00000000   32.77851807
     atom   10 type  1   force =     0.00004951   -0.00085721  -32.78251273
     atom   11 type  1   force =     0.00074994   -0.00000000  -32.78280772
     atom   12 type  1   force =     0.00085084   -0.00075182   32.78698752
     atom   13 type  1   force =     0.00004951    0.00004951   32.77803166
     atom   14 type  1   force =     0.00004951    0.00095622  -32.78251273
     atom   15 type  1   force =     0.00095622    0.00004951  -32.78251273
     atom   16 type  1   force =     0.00085084    0.00085084   32.78698752
     The core correction contribution to forces
     atom    1 type  1   force =     0.00000000    0.00000000    0.02917034
     atom    2 type  1   force =    -0.00000001    0.00001370   -0.02915323
     atom    3 type  1   force =     0.00001370   -0.00000001   -0.02915323
     atom    4 type  1   force =     0.00001296    0.00001296    0.02911899
     atom    5 type  1   force =    -0.00000000    0.00001504    0.02916808
     atom    6 type  1   force =    -0.00000000    0.00001638   -0.02915322
     atom    7 type  1   force =     0.00001332    0.00001504   -0.02915085
     atom    8 type  1   force =     0.00001295    0.00001713    0.02911899
     atom    9 type  1   force =     0.00001504   -0.00000000    0.02916808
     atom   10 type  1   force =     0.00001504    0.00001332   -0.02915085
     atom   11 type  1   force =     0.00001638   -0.00000000   -0.02915322
     atom   12 type  1   force =     0.00001713    0.00001295    0.02911899
     atom   13 type  1   force =     0.00001504    0.00001504    0.02916435
     atom   14 type  1   force =     0.00001504    0.00001676   -0.02915086
     atom   15 type  1   force =     0.00001676    0.00001504   -0.02915086
     atom   16 type  1   force =     0.00001713    0.00001713    0.02911899
     The Hubbard contrib.    to forces
     atom    1 type  1   force =     0.00000000    0.00000000    0.00000000
     atom    2 type  1   force =     0.00000000    0.00000000    0.00000000
     atom    3 type  1   force =     0.00000000    0.00000000    0.00000000
     atom    4 type  1   force =     0.00000000    0.00000000    0.00000000
     atom    5 type  1   force =     0.00000000    0.00000000    0.00000000
     atom    6 type  1   force =     0.00000000    0.00000000    0.00000000
     atom    7 type  1   force =     0.00000000    0.00000000    0.00000000
     atom    8 type  1   force =     0.00000000    0.00000000    0.00000000
     atom    9 type  1   force =     0.00000000    0.00000000    0.00000000
     atom   10 type  1   force =     0.00000000    0.00000000    0.00000000
     atom   11 type  1   force =     0.00000000    0.00000000    0.00000000
     atom   12 type  1   force =     0.00000000    0.00000000    0.00000000
     atom   13 type  1   force =     0.00000000    0.00000000    0.00000000
     atom   14 type  1   force =     0.00000000    0.00000000    0.00000000
     atom   15 type  1   force =     0.00000000    0.00000000    0.00000000
     atom   16 type  1   force =     0.00000000    0.00000000    0.00000000
     The SCF correction term to forces
     atom    1 type  1   force =    -0.00000000   -0.00000000    0.00001991
     atom    2 type  1   force =    -0.00000000    0.00000188   -0.00005628
     atom    3 type  1   force =     0.00000188   -0.00000000   -0.00005628
     atom    4 type  1   force =     0.00000005    0.00000005    0.00001571
     atom    5 type  1   force =    -0.00000000   -0.00000000    0.00001994
     atom    6 type  1   force =    -0.00000000   -0.00000188   -0.00005628
     atom    7 type  1   force =    -0.00000403   -0.00000000   -0.00004361
     atom    8 type  1   force =     0.00000005   -0.00000005    0.00001571
     atom    9 type  1   force =    -0.00000000   -0.00000000    0.00001994
     atom   10 type  1   force =    -0.00000000   -0.00000403   -0.00004361
     atom   11 type  1   force =    -0.00000188   -0.00000000   -0.00005628
     atom   12 type  1   force =    -0.00000005    0.00000005    0.00001571
     atom   13 type  1   force =    -0.00000000   -0.00000000    0.00001886
     atom   14 type  1   force =    -0.00000000    0.00000403   -0.00004361
     atom   15 type  1   force =     0.00000403   -0.00000000   -0.00004361
     atom   16 type  1   force =    -0.00000005   -0.00000005    0.00001572

     Total force =     0.000169     Total SCF correction =     0.000151
     SCF correction compared to forces is large: reduce conv_thr to get better values

     Computing stress (Cartesian axis) and pressure

     negative rho (up, down):  7.843E-05 0.000E+00
          total   stress  (Ry/bohr**3)                   (kbar)     P=      -20.87
  -0.00021130   0.00000000   0.00000000          -31.08        0.00        0.00
   0.00000000  -0.00021130   0.00000000            0.00      -31.08        0.00
   0.00000000   0.00000000  -0.00000311            0.00        0.00       -0.46

     kinetic stress (kbar)   5919.83      0.00      0.00
                                0.00   5919.83      0.00
                                0.00      0.00   5997.70

     local   stress (kbar) -75010.15     -0.00     -0.00
                               -0.00 -75010.15     -0.00
                               -0.00     -0.00  88792.44

     nonloc. stress (kbar)  -3788.76      0.00      0.00
                                0.00  -3788.76      0.00
                                0.00      0.00  -3793.52

     hartree stress (kbar)  40556.95     -0.00      0.00
                               -0.00  40556.95     -0.00
                                0.00     -0.00 -38067.39

     exc-cor stress (kbar)  15341.90      0.00      0.00
                                0.00  15341.90      0.00
                                0.00      0.00  15335.42

     corecor stress (kbar) -17699.70     -0.00     -0.00
                               -0.00 -17699.70     -0.00
                               -0.00     -0.00 -17707.37

     ewald   stress (kbar)  34648.86     -0.00      0.00
                               -0.00  34648.86      0.00
                                0.00      0.00 -50557.74

     hubbard stress (kbar)      0.00      0.00      0.00
                                0.00      0.00      0.00
                                0.00      0.00      0.00

     DFT-D   stress (kbar)      0.00      0.00      0.00
                                0.00      0.00      0.00
                                0.00      0.00      0.00

     XDM     stress (kbar)      0.00      0.00      0.00
                                0.00      0.00      0.00
                                0.00      0.00      0.00

     dft-nl  stress (kbar)      0.00      0.00      0.00
                                0.00      0.00      0.00
                                0.00      0.00      0.00

     TS-vdW  stress (kbar)      0.00      0.00      0.00
                                0.00      0.00      0.00
                                0.00      0.00      0.00

     Energy error            =      1.2E-05
     Gradient error          =      4.8E-05

     bfgs converged in   7 scf cycles and   6 bfgs steps
     (criteria: energy <  1.0E-04 Ry, force <  1.0E-03 Ry/Bohr)

     End of BFGS Geometry Optimization

     Final energy   =   -1839.2029118486 Ry

     File ./surface.bfgs deleted, as requested
Begin final coordinates

ATOMIC_POSITIONS (angstrom)
Au            0.0000000000        0.0000000000        0.0386416287
Au            0.0000000000        2.0856207418        2.0472162033
Au            2.0856207418        0.0000000000        2.0472162033
Au            2.0856154303        2.0856154303        0.0382208104
Au            0.0000000000        4.1712880000        0.0386167345
Au            0.0000000000        6.2569552582        2.0472162033
Au            2.0856118650        4.1712880000        2.0472303939
Au            2.0856154303        6.2569605697        0.0382208104
Au            4.1712880000        0.0000000000        0.0386167345
Au            4.1712880000        2.0856118650        2.0472303939
Au            6.2569552582        0.0000000000        2.0472162033
Au            6.2569605697        2.0856154303        0.0382208104
Au            4.1712880000        4.1712880000        0.0386072720
Au            4.1712880000        6.2569641350        2.0472303939
Au            6.2569641350        4.1712880000        2.0472303939
Au            6.2569605697        6.2569605697        0.0382208104
End final coordinates

     Writing output data file ./surface.save/

     General routines

     Parallel routines

   This run was terminated on:   0:28:27   6Dec2021

   JOB DONE.