     Program PWSCF v.6.7MaX starts on  6Dec2021 at  0:25:19

     R & G space division:  proc/nbgrp/npool/nimage =      32
     Reading input from au_surface.100.k.qe.7_7_1.in

     Current dimensions of program PWSCF are:
     Max number of different atomic species (ntypx) = 10
     Max number of k-points (npk) =  40000
     Max angular momentum in pseudopotentials (lmaxx) =  3

     Found symmetry operation: I + (  0.2500  0.2500  0.0000)
     This is a supercell, fractional translations are disabled

     bravais-lattice index     =            8
     lattice parameter (alat)  =      15.7652  a.u.
     unit-cell volume          =    6655.8994 (a.u.)^3
     number of atoms/cell      =           16
     number of atomic types    =            1
     number of electrons       =       176.00
     number of Kohn-Sham states=          106
     kinetic-energy cutoff     =      30.0000  Ry
     charge density cutoff     =     300.0000  Ry
     scf convergence threshold =      1.0E-06
     mixing beta               =       0.3000
     number of iterations used =            8  plain     mixing
     energy convergence thresh.=      1.0E-04
     force convergence thresh. =      1.0E-03
     Exchange-correlation= SLA  PW   PBE  PBE
                           (   1   4   3   4   0   0   0)
     nstep                     =           50

     celldm(1)=  15.765191  celldm(2)=   1.000000  celldm(3)=   1.698670
     celldm(4)=   0.000000  celldm(5)=   0.000000  celldm(6)=   0.000000

     crystal axes: (cart. coord. in units of alat)
               a(1) = (   1.000000   0.000000   0.000000 )
               a(2) = (   0.000000   1.000000   0.000000 )
               a(3) = (   0.000000   0.000000   1.698670 )

     reciprocal axes: (cart. coord. in units 2 pi/alat)
               b(1) = (  1.000000  0.000000  0.000000 )
               b(2) = (  0.000000  1.000000  0.000000 )
               b(3) = (  0.000000  0.000000  0.588696 )

     PseudoPot. # 1 for Au read from file:
     /expanse/lustre/projects/csd622/tpascal/nano110/qe/pseudo/au_pbe_v1.uspp.F.UPF
     MD5 check sum: 9d7f43293ad2c663164586bc4b293ffc
     Pseudo is Ultrasoft + core correction, Zval = 11.0
     Generated by new atomic code, or converted to UPF format
     Using radial grid of  985 points,  7 beta functions with:
                l(1) =   0
                l(2) =   0
                l(3) =   1
                l(4) =   1
                l(5) =   2
                l(6) =   2
                l(7) =   3
     Q(r) pseudized with  6 coefficients,  rinner =    1.900   1.900   1.900
                                                       1.900   1.900   1.900
                                                       1.900

     atomic species   valence    mass     pseudopotential
        Au            11.00   196.96655     Au( 1.00)

      8 Sym. Ops. (no inversion) found

                                    s                        frac. trans.

      isym =  1     identity

 cryst.   s( 1) = (     1          0          0      )
                  (     0          1          0      )
                  (     0          0          1      )

 cart.    s( 1) = (  1.0000000  0.0000000  0.0000000 )
                  (  0.0000000  1.0000000  0.0000000 )
                  (  0.0000000  0.0000000  1.0000000 )

      isym =  2     180 deg rotation - cart. axis [0,0,1]

[...]

      isym =  4      90 deg rotation - cart. axis [0,0,1]

[...]

      isym =  5     inv. 180 deg rotation - cart. axis [0,1,0]

[...]

      isym =  8     inv. 180 deg rotation - cart. axis [1,-1,0]

 cryst.   s( 8) = (     0          1          0      )
                  (     1          0          0      )
                  (     0          0          1      )

 cart.    s( 8) = (  0.0000000  1.0000000  0.0000000 )
                  (  1.0000000  0.0000000  0.0000000 )
                  (  0.0000000  0.0000000  1.0000000 )

     point group C_4v (4mm)
     there are  5 classes
     the character table:

       E     2C4   C2    2s_v  2s_d
A_1    1.00  1.00  1.00  1.00  1.00
A_2    1.00  1.00  1.00 -1.00 -1.00
B_1    1.00 -1.00  1.00  1.00 -1.00
B_2    1.00 -1.00  1.00 -1.00  1.00
E      2.00  0.00 -2.00  0.00  0.00

     the symmetry operations in each class and the name of the first element:

     E        1
          identity
     2C4      3    4
           90 deg rotation - cart. axis [0,0,-1]
     C2       2
          180 deg rotation - cart. axis [0,0,1]
     2s_v     5    6
          inv. 180 deg rotation - cart. axis [0,1,0]
     2s_d     7    8
          inv. 180 deg rotation - cart. axis [1,1,0]

   Cartesian axes

     site n.     atom                  positions (alat units)
         1           Au  tau(   1) = (   0.0000000   0.0000000   0.0000000  )
         2           Au  tau(   2) = (   0.0000000   0.2499999   0.2499999  )
         3           Au  tau(   3) = (   0.2499999   0.0000000   0.2499999  )
         4           Au  tau(   4) = (   0.2499999   0.2499999   0.0000000  )
         5           Au  tau(   5) = (   0.0000000   0.4999998   0.0000000  )
         6           Au  tau(   6) = (   0.0000000   0.7499996   0.2499999  )
         7           Au  tau(   7) = (   0.2499999   0.4999998   0.2499999  )
         8           Au  tau(   8) = (   0.2499999   0.7499996   0.0000000  )
         9           Au  tau(   9) = (   0.4999998   0.0000000   0.0000000  )
        10           Au  tau(  10) = (   0.4999998   0.2499999   0.2499999  )
        11           Au  tau(  11) = (   0.7499996   0.0000000   0.2499999  )
        12           Au  tau(  12) = (   0.7499996   0.2499999   0.0000000  )
        13           Au  tau(  13) = (   0.4999998   0.4999998   0.0000000  )
        14           Au  tau(  14) = (   0.4999998   0.7499996   0.2499999  )
        15           Au  tau(  15) = (   0.7499996   0.4999998   0.2499999  )
        16           Au  tau(  16) = (   0.7499996   0.7499996   0.0000000  )

   Crystallographic axes

     site n.     atom                  positions (cryst. coord.)
         1           Au  tau(   1) = (  0.0000000  0.0000000  0.0000000  )
         2           Au  tau(   2) = (  0.0000000  0.2499999  0.1471739  )
         3           Au  tau(   3) = (  0.2499999  0.0000000  0.1471739  )
         4           Au  tau(   4) = (  0.2499999  0.2499999  0.0000000  )
         5           Au  tau(   5) = (  0.0000000  0.4999998  0.0000000  )
         6           Au  tau(   6) = (  0.0000000  0.7499996  0.1471739  )
         7           Au  tau(   7) = (  0.2499999  0.4999998  0.1471739  )
         8           Au  tau(   8) = (  0.2499999  0.7499996  0.0000000  )
         9           Au  tau(   9) = (  0.4999998  0.0000000  0.0000000  )
        10           Au  tau(  10) = (  0.4999998  0.2499999  0.1471739  )
        11           Au  tau(  11) = (  0.7499996  0.0000000  0.1471739  )
        12           Au  tau(  12) = (  0.7499996  0.2499999  0.0000000  )
        13           Au  tau(  13) = (  0.4999998  0.4999998  0.0000000  )
        14           Au  tau(  14) = (  0.4999998  0.7499996  0.1471739  )
        15           Au  tau(  15) = (  0.7499996  0.4999998  0.1471739  )
        16           Au  tau(  16) = (  0.7499996  0.7499996  0.0000000  )

     number of k points=    10  Gaussian smearing, width (Ry)=  0.0030
                       cart. coord. in units 2pi/alat
        k(    1) = (   0.0000000   0.0000000   0.0000000), wk =   0.0408163
        k(    2) = (   0.0000000   0.1428571   0.0000000), wk =   0.1632653
        k(    3) = (   0.0000000   0.2857143   0.0000000), wk =   0.1632653
        k(    4) = (   0.0000000   0.4285714   0.0000000), wk =   0.1632653
        k(    5) = (   0.1428571   0.1428571   0.0000000), wk =   0.1632653
        k(    6) = (   0.1428571   0.2857143   0.0000000), wk =   0.3265306
        k(    7) = (   0.1428571   0.4285714   0.0000000), wk =   0.3265306
        k(    8) = (   0.2857143   0.2857143   0.0000000), wk =   0.1632653
        k(    9) = (   0.2857143   0.4285714   0.0000000), wk =   0.3265306
        k(   10) = (   0.4285714   0.4285714   0.0000000), wk =   0.1632653

                       cryst. coord.
        k(    1) = (   0.0000000   0.0000000   0.0000000), wk =   0.0408163
        k(    2) = (   0.0000000   0.1428571   0.0000000), wk =   0.1632653
        k(    3) = (   0.0000000   0.2857143   0.0000000), wk =   0.1632653
        k(    4) = (   0.0000000   0.4285714   0.0000000), wk =   0.1632653
        k(    5) = (   0.1428571   0.1428571   0.0000000), wk =   0.1632653
        k(    6) = (   0.1428571   0.2857143   0.0000000), wk =   0.3265306
        k(    7) = (   0.1428571   0.4285714   0.0000000), wk =   0.3265306
        k(    8) = (   0.2857143   0.2857143   0.0000000), wk =   0.1632653
        k(    9) = (   0.2857143   0.4285714   0.0000000), wk =   0.3265306
        k(   10) = (   0.4285714   0.4285714   0.0000000), wk =   0.1632653

     Check: negative core charge=   -0.000004

     Initial potential from superposition of free atoms

     starting charge  175.99804, renormalised to  176.00000

     negative rho (up, down):  2.645E-05 0.000E+00
     Starting wfcs are  144 randomized atomic wfcs

     Self-consistent Calculation

     iteration #  1     ecut=    30.00 Ry     beta= 0.30
     Davidson diagonalization with overlap
     ethr =  1.00E-02,  avg # of iterations =  2.2

     Threshold (ethr) on eigenvalues was too large:
     Diagonalizing with lowered threshold

     Davidson diagonalization with overlap
     ethr =  3.97E-04,  avg # of iterations =  2.4

     negative rho (up, down):  1.583E-05 0.000E+00

     total energy              =   -1839.11534802 Ry
     estimated scf accuracy    <       0.80352292 Ry

[...]

     End of self-consistent calculation

          k = 0.0000 0.0000 0.0000 ( 18535 PWs)   bands (ev):

    -6.7634  -5.0489  -4.8960  -4.8960  -4.8960  -4.8960  -4.8145  -4.8145
    -4.8144  -4.8144  -4.8023  -4.6587  -4.6587  -4.3394  -4.3394  -3.9667
    -3.9667  -3.9667  -3.9667  -3.8625  -3.7904  -3.7904  -3.7904  -3.7904
    -3.4696  -3.4696  -3.4696  -3.4696  -3.3311  -3.3311  -3.3311  -3.3311
    -2.9283  -2.9283  -2.9282  -2.9282  -2.9099  -2.9099  -2.9099  -2.9099
    -2.8352  -2.8352  -2.8352  -2.8352  -2.7718  -2.7718  -2.7718  -2.7718
    -2.7075  -2.7075  -2.5040  -2.2804  -2.2804  -2.2804  -2.2804  -2.1150
    -2.1150  -2.1150  -2.1150  -2.0447  -2.0447  -2.0319  -2.0318  -2.0318
    -2.0318  -1.7659  -1.6557  -1.6557  -1.4854  -1.4854  -1.4854  -1.4854
    -1.4825  -1.4825  -1.4825  -1.4825  -1.4741  -1.4741  -1.4741  -1.4741
    -1.3224  -1.3224  -1.2454  -1.2205  -0.6832  -0.6832   0.9114   0.9115
     0.9115   0.9115   1.0684   1.0684   1.0684   1.0684   2.1941   3.3392
     3.3392   3.3392   3.3393   4.0173   4.0173   5.1967   5.4598   5.4598
     5.4600   5.4600

     occupation numbers
     1.0000   1.0000   1.0000   1.0000   1.0000   1.0000   1.0000   1.0000
     1.0000   1.0000   1.0000   1.0000   1.0000   1.0000   1.0000   1.0000
     1.0000   1.0000   1.0000   1.0000   1.0000   1.0000   1.0000   1.0000
     1.0000   1.0000   1.0000   1.0000   1.0000   1.0000   1.0000   1.0000
[...]
Au            4.1712880000        6.2569754990        2.0488554174
Au            6.2569754990        4.1712880000        2.0488554174
Au            6.2569731444        6.2569731444        0.0366187290

     Writing output data file ./surface.save/
     NEW-OLD atomic charge density approx. for the potential

     Check: negative core charge=   -0.000004

[...]

     Self-consistent Calculation

[...]

     Threshold (ethr) on eigenvalues was too large:
     Diagonalizing with lowered threshold

     Davidson diagonalization with overlap
     ethr =  2.78E-10,  avg # of iterations =  5.9

[...]

     total energy              =   -1839.20477697 Ry
     estimated scf accuracy    <       0.00000002 Ry

     iteration #  3     ecut=    30.00 Ry     beta= 0.30
     Davidson diagonalization with overlap
     ethr =  1.36E-11,  avg # of iterations =  1.8

[...]

     End of self-consistent calculation

[...]

          k = 0.4286 0.4286 0.0000 ( 18476 PWs)   bands (ev):

    -6.1004  -5.8540  -5.8540  -5.6742  -4.8803  -4.8491  -4.8311  -4.8311
    -4.5519  -4.5519  -4.5402  -4.5402  -4.4918  -4.4918  -4.4539  -4.4539
    -4.2044  -4.2044  -4.1599  -4.0653  -4.0653  -4.0334  -4.0334  -3.9636
    -3.9636  -3.8933  -3.8933  -3.8424  -3.3878  -3.2469  -3.2393  -3.2393
    -3.2146  -3.2146  -3.1377  -3.0851  -2.9127  -2.9127  -2.8493  -2.8464
    -2.8464  -2.8175  -2.7309  -2.7309  -2.6582  -2.6582  -2.6048  -2.5801
    -2.5801  -2.4782  -2.4608  -2.4510  -2.4510  -2.4461  -2.4461  -2.3790
    -2.0183  -2.0183  -1.9467  -1.9467  -1.9107  -1.9107  -1.8843  -1.8843
    -1.8746  -1.8746  -1.8701  -1.8622  -1.5950  -1.5950  -1.5843  -1.5778
    -1.5778  -1.5761  -1.5761  -1.5053  -1.4517  -1.4517  -1.4283  -1.4283
    -1.2001  -1.1974  -1.1974  -1.1849  -0.2915   0.0151   0.0151   0.2899
     1.1371   1.1372   1.6839   1.6839   2.1260   2.1260   2.6503   2.6503
     3.7116   4.1288   4.1288   4.2213   4.2213   4.4771   4.4990   4.4990
     5.2218   5.2218

     occupation numbers
     1.0000   1.0000   1.0000   1.0000   1.0000   1.0000   1.0000   1.0000
     1.0000   1.0000   1.0000   1.0000   1.0000   1.0000   1.0000   1.0000
     1.0000   1.0000   1.0000   1.0000   1.0000   1.0000   1.0000   1.0000
     1.0000   1.0000   1.0000   1.0000   1.0000   1.0000   1.0000   1.0000
     1.0000   1.0000   1.0000   1.0000   1.0000   1.0000   1.0000   1.0000
     1.0000   1.0000   1.0000   1.0000   1.0000   1.0000   1.0000   1.0000
     1.0000   1.0000   1.0000   1.0000   1.0000   1.0000   1.0000   1.0000
     1.0000   1.0000   1.0000   1.0000   1.0000   1.0000   1.0000   1.0000
     1.0000   1.0000   1.0000   1.0000   1.0000   1.0000   1.0000   1.0000
     1.0000   1.0000   1.0000   1.0000   1.0000   1.0000   1.0000   1.0000
     1.0000   1.0000   1.0000   1.0000   1.0000   1.0000   1.0000   0.5172
     0.0000   0.0000   0.0000   0.0000   0.0000   0.0000   0.0000   0.0000
     0.0000   0.0000   0.0000   0.0000   0.0000   0.0000   0.0000   0.0000
     0.0000   0.0000

     the Fermi energy is     0.2912 ev

!    total energy              =   -1839.20477697 Ry
     estimated scf accuracy    <          2.7E-09 Ry
     smearing contrib. (-TS)   =      -0.00061729 Ry
     internal energy E=F+TS    =   -1839.20415968 Ry

     The total energy is F=E-TS. E is the sum of the following terms:
     one-electron contribution =   -3636.70283326 Ry
     hartree contribution      =    1945.77845877 Ry
     xc contribution           =    -994.57008904 Ry
     ewald contribution        =     846.29030386 Ry

     convergence has been achieved in   3 iterations

     negative rho (up, down):  7.854E-05 0.000E+00

     Forces acting on atoms (cartesian axes, Ry/au):

     atom    1 type  1   force =     0.00000000    0.00000000   -0.00002104
     atom    2 type  1   force =     0.00000000    0.00001702    0.00001546
     atom    3 type  1   force =     0.00001702    0.00000000    0.00001546
     atom    4 type  1   force =     0.00001918    0.00001918   -0.00000863
     atom    5 type  1   force =     0.00000000    0.00000000   -0.00000555
     atom    6 type  1   force =     0.00000000   -0.00001702    0.00001546
     atom    7 type  1   force =     0.00001897    0.00000000   -0.00000227
     atom    8 type  1   force =     0.00001918   -0.00001918   -0.00000863
     atom    9 type  1   force =     0.00000000    0.00000000   -0.00000555
     atom   10 type  1   force =     0.00000000    0.00001897   -0.00000227
     atom   11 type  1   force =    -0.00001702    0.00000000    0.00001546
     atom   12 type  1   force =    -0.00001918    0.00001918   -0.00000863
     atom   13 type  1   force =     0.00000000    0.00000000    0.00001392
     atom   14 type  1   force =     0.00000000   -0.00001897   -0.00000227
     atom   15 type  1   force =    -0.00001897    0.00000000   -0.00000227
     atom   16 type  1   force =    -0.00001918   -0.00001918   -0.00000863
     The non-local contrib.  to forces
     atom    1 type  1   force =     0.00000000    0.00000000    0.01819565
     atom    2 type  1   force =     0.00000000    0.00001282   -0.01819901
     atom    3 type  1   force =     0.00001282    0.00000000   -0.01819901
     atom    4 type  1   force =     0.00001422    0.00001422    0.01819955
     atom    5 type  1   force =     0.00000000    0.00000000    0.01819227
     atom    6 type  1   force =     0.00000000   -0.00001282   -0.01819901
     atom    7 type  1   force =     0.00001428    0.00000000   -0.01819606
     atom    8 type  1   force =     0.00001422   -0.00001422    0.01819955
     atom    9 type  1   force =     0.00000000    0.00000000    0.01819227
     atom   10 type  1   force =     0.00000000    0.00001428   -0.01819606
     atom   11 type  1   force =    -0.00001282    0.00000000   -0.01819901
     atom   12 type  1   force =    -0.00001422    0.00001422    0.01819955
     atom   13 type  1   force =     0.00000000    0.00000000    0.01818955
     atom   14 type  1   force =     0.00000000   -0.00001428   -0.01819606
     atom   15 type  1   force =    -0.00001428    0.00000000   -0.01819606
     atom   16 type  1   force =    -0.00001422   -0.00001422    0.01819955
     The ionic contribution  to forces
     atom    1 type  1   force =    -0.00003938   -0.00003938  -32.81557193
     atom    2 type  1   force =    -0.00003937    0.00111196   32.81901924
     atom    3 type  1   force =     0.00111196   -0.00003937   32.81901924
     atom    4 type  1   force =     0.00113835    0.00113835  -32.82240897
     atom    5 type  1   force =    -0.00003938    0.00001507  -32.81503144
     atom    6 type  1   force =    -0.00003937   -0.00108766   32.81900181
     atom    7 type  1   force =     0.00120139    0.00001507   32.81838943
     atom    8 type  1   force =     0.00113835   -0.00111404  -32.82239154
     atom    9 type  1   force =     0.00001507   -0.00003938  -32.81503144
     atom   10 type  1   force =     0.00001507    0.00120139   32.81838943
     atom   11 type  1   force =    -0.00108766   -0.00003937   32.81900181
     atom   12 type  1   force =    -0.00111404    0.00113835  -32.82239154
     atom   13 type  1   force =     0.00001507    0.00001507  -32.81436398
     atom   14 type  1   force =     0.00001507   -0.00117709   32.81837200
     atom   15 type  1   force =    -0.00117709    0.00001507   32.81837200
     atom   16 type  1   force =    -0.00111404   -0.00111404  -32.82237412
     The local contribution  to forces
     atom    1 type  1   force =    -0.00000000   -0.00000000   32.76806874
     atom    2 type  1   force =    -0.00000000   -0.00105521  -32.77153837
     atom    3 type  1   force =    -0.00105521   -0.00000000  -32.77153837
     atom    4 type  1   force =    -0.00107917   -0.00107917   32.77494208
     atom    5 type  1   force =    -0.00000000    0.00004952   32.76753861
     atom    6 type  1   force =    -0.00000000    0.00115424  -32.77153837
     atom    7 type  1   force =    -0.00114396    0.00004952  -32.77092342
     atom    8 type  1   force =    -0.00107917    0.00117821   32.77494207
     atom    9 type  1   force =     0.00004952   -0.00000000   32.76753861
     atom   10 type  1   force =     0.00004952   -0.00114396  -32.77092342
     atom   11 type  1   force =     0.00115424   -0.00000000  -32.77153837
     atom   12 type  1   force =     0.00117821   -0.00107917   32.77494207
     atom   13 type  1   force =     0.00004952    0.00004952   32.76689009
     atom   14 type  1   force =     0.00004952    0.00124300  -32.77092342
     atom   15 type  1   force =     0.00124300    0.00004952  -32.77092342
     atom   16 type  1   force =     0.00117821    0.00117821   32.77494207
     The core correction contribution to forces
     atom    1 type  1   force =    -0.00000000   -0.00000000    0.02936288
     atom    2 type  1   force =    -0.00000000    0.00001009   -0.02934013
     atom    3 type  1   force =     0.00001009   -0.00000000   -0.02934013
     atom    4 type  1   force =     0.00001029    0.00001029    0.02930322
     atom    5 type  1   force =    -0.00000000    0.00001505    0.02935683
     atom    6 type  1   force =    -0.00000000    0.00002002   -0.02934014
     atom    7 type  1   force =     0.00000994    0.00001505   -0.02933424
     atom    8 type  1   force =     0.00001029    0.00001982    0.02930323
     atom    9 type  1   force =     0.00001505   -0.00000000    0.02935683
     atom   10 type  1   force =     0.00001505    0.00000994   -0.02933424
     atom   11 type  1   force =     0.00002002   -0.00000000   -0.02934014
     atom   12 type  1   force =     0.00001982    0.00001029    0.02930323
     atom   13 type  1   force =     0.00001505    0.00001505    0.02935177
     atom   14 type  1   force =     0.00001505    0.00002016   -0.02933424
     atom   15 type  1   force =     0.00002016    0.00001505   -0.02933424
     atom   16 type  1   force =     0.00001982    0.00001982    0.02930324
     The Hubbard contrib.    to forces
     atom    1 type  1   force =     0.00000000    0.00000000    0.00000000
     atom    2 type  1   force =     0.00000000    0.00000000    0.00000000
     atom    3 type  1   force =     0.00000000    0.00000000    0.00000000
     atom    4 type  1   force =     0.00000000    0.00000000    0.00000000
     atom    5 type  1   force =     0.00000000    0.00000000    0.00000000
     atom    6 type  1   force =     0.00000000    0.00000000    0.00000000
     atom    7 type  1   force =     0.00000000    0.00000000    0.00000000
     atom    8 type  1   force =     0.00000000    0.00000000    0.00000000
     atom    9 type  1   force =     0.00000000    0.00000000    0.00000000
     atom   10 type  1   force =     0.00000000    0.00000000    0.00000000
     atom   11 type  1   force =     0.00000000    0.00000000    0.00000000
     atom   12 type  1   force =     0.00000000    0.00000000    0.00000000
     atom   13 type  1   force =     0.00000000    0.00000000    0.00000000
     atom   14 type  1   force =     0.00000000    0.00000000    0.00000000
     atom   15 type  1   force =     0.00000000    0.00000000    0.00000000
     atom   16 type  1   force =     0.00000000    0.00000000    0.00000000
     The SCF correction term to forces
     atom    1 type  1   force =    -0.00000000   -0.00000000   -0.00008029
     atom    2 type  1   force =    -0.00000000    0.00001407    0.00007853
     atom    3 type  1   force =     0.00001407   -0.00000000    0.00007853
     atom    4 type  1   force =     0.00001221    0.00001221   -0.00006587
     atom    5 type  1   force =    -0.00000000   -0.00000000   -0.00006575
     atom    6 type  1   force =    -0.00000000   -0.00001407    0.00007853
     atom    7 type  1   force =     0.00001405   -0.00000000    0.00006681
     atom    8 type  1   force =     0.00001221   -0.00001221   -0.00006587
     atom    9 type  1   force =    -0.00000000   -0.00000000   -0.00006575
     atom   10 type  1   force =    -0.00000000    0.00001405    0.00006681
     atom   11 type  1   force =    -0.00001407   -0.00000000    0.00007853
     atom   12 type  1   force =    -0.00001221    0.00001221   -0.00006587
     atom   13 type  1   force =    -0.00000000   -0.00000000   -0.00005743
     atom   14 type  1   force =    -0.00000000   -0.00001405    0.00006681
     atom   15 type  1   force =    -0.00001405   -0.00000000    0.00006681
     atom   16 type  1   force =    -0.00001221   -0.00001221   -0.00006587

     Total force =     0.000087     Total SCF correction =     0.000285
     SCF correction compared to forces is large: reduce conv_thr to get better values

     Computing stress (Cartesian axis) and pressure

     negative rho (up, down):  7.854E-05 0.000E+00
          total   stress  (Ry/bohr**3)                   (kbar)     P=      -21.88
  -0.00022153   0.00000000   0.00000000          -32.59        0.00        0.00
   0.00000000  -0.00022153   0.00000000            0.00      -32.59        0.00
   0.00000000   0.00000000  -0.00000318            0.00        0.00       -0.47

     kinetic stress (kbar)   5915.81      0.00      0.00
                                0.00   5915.81      0.00
                                0.00      0.00   5998.97

     local   stress (kbar) -74927.03     -0.00     -0.00
                               -0.00 -74927.03     -0.00
                               -0.00     -0.00  88698.51

     nonloc. stress (kbar)  -3786.13      0.00      0.00
                                0.00  -3786.13      0.00
                                0.00      0.00  -3790.96

     hartree stress (kbar)  40513.48      0.00      0.00
                                0.00  40513.48     -0.00
                                0.00     -0.00 -38022.42

     exc-cor stress (kbar)  15341.96      0.00      0.00
                                0.00  15341.96      0.00
                                0.00      0.00  15335.59

     corecor stress (kbar) -17699.06      0.00      0.00
                                0.00 -17699.06      0.00
                                0.00      0.00 -17707.65

     ewald   stress (kbar)  34608.38      0.00      0.00
                                0.00  34608.38      0.00
                                0.00      0.00 -50512.51

     hubbard stress (kbar)      0.00      0.00      0.00
                                0.00      0.00      0.00
                                0.00      0.00      0.00

     DFT-D   stress (kbar)      0.00      0.00      0.00
                                0.00      0.00      0.00
                                0.00      0.00      0.00

     XDM     stress (kbar)      0.00      0.00      0.00
                                0.00      0.00      0.00
                                0.00      0.00      0.00

     dft-nl  stress (kbar)      0.00      0.00      0.00
                                0.00      0.00      0.00
                                0.00      0.00      0.00

     TS-vdW  stress (kbar)      0.00      0.00      0.00
                                0.00      0.00      0.00
                                0.00      0.00      0.00

     Energy error            =      4.3E-08
     Gradient error          =      2.1E-05

     bfgs converged in   7 scf cycles and   6 bfgs steps
     (criteria: energy <  1.0E-04 Ry, force <  1.0E-03 Ry/Bohr)

     End of BFGS Geometry Optimization

     Final energy   =   -1839.2047769667 Ry

     File ./surface.bfgs deleted, as requested
Begin final coordinates

ATOMIC_POSITIONS (angstrom)
Au            0.0000000000        0.0000000000        0.0369738177
Au            0.0000000000        2.0856037201        2.0488490184
Au            2.0856037201        0.0000000000        2.0488490184
Au            2.0856028556        2.0856028556        0.0366187290
Au            0.0000000000        4.1712880000        0.0369643413
Au            0.0000000000        6.2569722799        2.0488490184
Au            2.0856005010        4.1712880000        2.0488554174
Au            2.0856028556        6.2569731444        0.0366187290
Au            4.1712880000        0.0000000000        0.0369643413
Au            4.1712880000        2.0856005010        2.0488554174
Au            6.2569722799        0.0000000000        2.0488490184
Au            6.2569731444        2.0856028556        0.0366187290
Au            4.1712880000        4.1712880000        0.0369568404
Au            4.1712880000        6.2569754990        2.0488554174
Au            6.2569754990        4.1712880000        2.0488554174
Au            6.2569731444        6.2569731444        0.0366187290
End final coordinates

     Writing output data file ./surface.save/

     General routines

     Parallel routines

   This run was terminated on:   0:29:39   6Dec2021

   JOB DONE.