     Program PWSCF v.6.7MaX starts on  6Dec2021 at  0:25:20

     R & G space division:  proc/nbgrp/npool/nimage =      32
     Reading input from au_surface.100.k.qe.5_5_1.in

     Current dimensions of program PWSCF are:
     Max number of different atomic species (ntypx) = 10
     Max number of k-points (npk) =  40000
     Max angular momentum in pseudopotentials (lmaxx) =  3

     Found symmetry operation: I + (  0.2500  0.2500  0.0000)
     This is a supercell, fractional translations are disabled

     bravais-lattice index     =            8
     lattice parameter (alat)  =      15.7652  a.u.
     unit-cell volume          =    6655.8994 (a.u.)^3
     number of atoms/cell      =           16
     number of atomic types    =            1
     number of electrons       =       176.00
     number of Kohn-Sham states=          106
     kinetic-energy cutoff     =      30.0000  Ry
     charge density cutoff     =     300.0000  Ry
     scf convergence threshold =      1.0E-06
     mixing beta               =       0.3000
     number of iterations used =            8  plain     mixing
     energy convergence thresh.=      1.0E-04
     force convergence thresh. =      1.0E-03
     Exchange-correlation= SLA  PW   PBE  PBE
                           (   1   4   3   4   0   0   0)
     nstep                     =           50

     celldm(1)=  15.765191  celldm(2)=   1.000000  celldm(3)=   1.698670
     celldm(4)=   0.000000  celldm(5)=   0.000000  celldm(6)=   0.000000

     crystal axes: (cart. coord. in units of alat)
               a(1) = (   1.000000   0.000000   0.000000 )
               a(2) = (   0.000000   1.000000   0.000000 )
               a(3) = (   0.000000   0.000000   1.698670 )

     reciprocal axes: (cart. coord. in units 2 pi/alat)
               b(1) = (  1.000000  0.000000  0.000000 )
               b(2) = (  0.000000  1.000000  0.000000 )
               b(3) = (  0.000000  0.000000  0.588696 )

     PseudoPot. # 1 for Au read from file:
     /expanse/lustre/projects/csd622/tpascal/nano110/qe/pseudo/au_pbe_v1.uspp.F.UPF
     MD5 check sum: 9d7f43293ad2c663164586bc4b293ffc
     Pseudo is Ultrasoft + core correction, Zval = 11.0
     Generated by new atomic code, or converted to UPF format
     Using radial grid of  985 points,  7 beta functions with:
                l(1) =   0
                l(2) =   0
                l(3) =   1
                l(4) =   1
                l(5) =   2
                l(6) =   2
                l(7) =   3
     Q(r) pseudized with  6 coefficients,  rinner =    1.900   1.900   1.900
                                                       1.900   1.900   1.900
                                                       1.900

     atomic species   valence    mass     pseudopotential
        Au            11.00   196.96655     Au( 1.00)

      8 Sym. Ops. (no inversion) found

                                    s                        frac. trans.

      isym =  1     identity

 cryst.   s( 1) = (     1          0          0      )
                  (     0          1          0      )
                  (     0          0          1      )

 cart.    s( 1) = (  1.0000000  0.0000000  0.0000000 )
                  (  0.0000000  1.0000000  0.0000000 )
                  (  0.0000000  0.0000000  1.0000000 )

      isym =  2     180 deg rotation - cart. axis [0,0,1]

[...]

      isym =  4      90 deg rotation - cart. axis [0,0,1]

[...]

      isym =  5     inv. 180 deg rotation - cart. axis [0,1,0]

[...]

      isym =  8     inv. 180 deg rotation - cart. axis [1,-1,0]

 cryst.   s( 8) = (     0          1          0      )
                  (     1          0          0      )
                  (     0          0          1      )

 cart.    s( 8) = (  0.0000000  1.0000000  0.0000000 )
                  (  1.0000000  0.0000000  0.0000000 )
                  (  0.0000000  0.0000000  1.0000000 )

     point group C_4v (4mm)
     there are  5 classes
     the character table:

       E     2C4   C2    2s_v  2s_d
A_1    1.00  1.00  1.00  1.00  1.00
A_2    1.00  1.00  1.00 -1.00 -1.00
B_1    1.00 -1.00  1.00  1.00 -1.00
B_2    1.00 -1.00  1.00 -1.00  1.00
E      2.00  0.00 -2.00  0.00  0.00

     the symmetry operations in each class and the name of the first element:

     E        1
          identity
     2C4      3    4
           90 deg rotation - cart. axis [0,0,-1]
     C2       2
          180 deg rotation - cart. axis [0,0,1]
     2s_v     5    6
          inv. 180 deg rotation - cart. axis [0,1,0]
     2s_d     7    8
          inv. 180 deg rotation - cart. axis [1,1,0]

   Cartesian axes

     site n.     atom                  positions (alat units)
         1           Au  tau(   1) = (   0.0000000   0.0000000   0.0000000  )
         2           Au  tau(   2) = (   0.0000000   0.2499999   0.2499999  )
         3           Au  tau(   3) = (   0.2499999   0.0000000   0.2499999  )
         4           Au  tau(   4) = (   0.2499999   0.2499999   0.0000000  )
         5           Au  tau(   5) = (   0.0000000   0.4999998   0.0000000  )
         6           Au  tau(   6) = (   0.0000000   0.7499996   0.2499999  )
         7           Au  tau(   7) = (   0.2499999   0.4999998   0.2499999  )
         8           Au  tau(   8) = (   0.2499999   0.7499996   0.0000000  )
         9           Au  tau(   9) = (   0.4999998   0.0000000   0.0000000  )
        10           Au  tau(  10) = (   0.4999998   0.2499999   0.2499999  )
        11           Au  tau(  11) = (   0.7499996   0.0000000   0.2499999  )
        12           Au  tau(  12) = (   0.7499996   0.2499999   0.0000000  )
        13           Au  tau(  13) = (   0.4999998   0.4999998   0.0000000  )
        14           Au  tau(  14) = (   0.4999998   0.7499996   0.2499999  )
        15           Au  tau(  15) = (   0.7499996   0.4999998   0.2499999  )
        16           Au  tau(  16) = (   0.7499996   0.7499996   0.0000000  )

   Crystallographic axes

     site n.     atom                  positions (cryst. coord.)
         1           Au  tau(   1) = (  0.0000000  0.0000000  0.0000000  )
         2           Au  tau(   2) = (  0.0000000  0.2499999  0.1471739  )
         3           Au  tau(   3) = (  0.2499999  0.0000000  0.1471739  )
         4           Au  tau(   4) = (  0.2499999  0.2499999  0.0000000  )
         5           Au  tau(   5) = (  0.0000000  0.4999998  0.0000000  )
         6           Au  tau(   6) = (  0.0000000  0.7499996  0.1471739  )
         7           Au  tau(   7) = (  0.2499999  0.4999998  0.1471739  )
         8           Au  tau(   8) = (  0.2499999  0.7499996  0.0000000  )
         9           Au  tau(   9) = (  0.4999998  0.0000000  0.0000000  )
        10           Au  tau(  10) = (  0.4999998  0.2499999  0.1471739  )
        11           Au  tau(  11) = (  0.7499996  0.0000000  0.1471739  )
        12           Au  tau(  12) = (  0.7499996  0.2499999  0.0000000  )
        13           Au  tau(  13) = (  0.4999998  0.4999998  0.0000000  )
        14           Au  tau(  14) = (  0.4999998  0.7499996  0.1471739  )
        15           Au  tau(  15) = (  0.7499996  0.4999998  0.1471739  )
        16           Au  tau(  16) = (  0.7499996  0.7499996  0.0000000  )

     number of k points=     6  Gaussian smearing, width (Ry)=  0.0030
                       cart. coord. in units 2pi/alat
        k(    1) = (   0.0000000   0.0000000   0.0000000), wk =   0.0800000
        k(    2) = (   0.0000000   0.2000000   0.0000000), wk =   0.3200000
        k(    3) = (   0.0000000   0.4000000   0.0000000), wk =   0.3200000
        k(    4) = (   0.2000000   0.2000000   0.0000000), wk =   0.3200000
        k(    5) = (   0.2000000   0.4000000   0.0000000), wk =   0.6400000
        k(    6) = (   0.4000000   0.4000000   0.0000000), wk =   0.3200000

                       cryst. coord.
        k(    1) = (   0.0000000   0.0000000   0.0000000), wk =   0.0800000
        k(    2) = (   0.0000000   0.2000000   0.0000000), wk =   0.3200000
        k(    3) = (   0.0000000   0.4000000   0.0000000), wk =   0.3200000
        k(    4) = (   0.2000000   0.2000000   0.0000000), wk =   0.3200000
        k(    5) = (   0.2000000   0.4000000   0.0000000), wk =   0.6400000
        k(    6) = (   0.4000000   0.4000000   0.0000000), wk =   0.3200000

     Check: negative core charge=   -0.000004

     Initial potential from superposition of free atoms

     starting charge  175.99804, renormalised to  176.00000

     negative rho (up, down):  2.645E-05 0.000E+00
     Starting wfcs are  144 randomized atomic wfcs

     Self-consistent Calculation

     iteration #  1     ecut=    30.00 Ry     beta= 0.30
     Davidson diagonalization with overlap
     ethr =  1.00E-02,  avg # of iterations =  2.8

     Threshold (ethr) on eigenvalues was too large:
     Diagonalizing with lowered threshold

     Davidson diagonalization with overlap
     ethr =  3.92E-04,  avg # of iterations =  2.0

     negative rho (up, down):  1.627E-05 0.000E+00

     total energy              =   -1839.11730072 Ry
     estimated scf accuracy    <       0.79507739 Ry

[...]

     iteration #  4     ecut=    30.00 Ry     beta= 0.30
     Davidson diagonalization with overlap
     c_bands:  1 eigenvalues not converged
     ethr =  5.01E-06,  avg # of iterations = 10.3

[...]

     End of self-consistent calculation

          k = 0.0000 0.0000 0.0000 ( 18535 PWs)   bands (ev):

    -6.7398  -5.0284  -4.8744  -4.8744  -4.8744  -4.8744  -4.7919  -4.7919
    -4.7919  -4.7919  -4.7792  -4.6367  -4.6366  -4.3212  -4.3212  -3.9460
    -3.9460  -3.9460  -3.9460  -3.8400  -3.7711  -3.7711  -3.7711  -3.7711
    -3.4519  -3.4519  -3.4519  -3.4519  -3.3116  -3.3116  -3.3116  -3.3116
    -2.9089  -2.9089  -2.9088  -2.9088  -2.8926  -2.8926  -2.8926  -2.8926
    -2.8143  -2.8143  -2.8143  -2.8143  -2.7505  -2.7505  -2.7505  -2.7505
    -2.6906  -2.6906  -2.4906  -2.2640  -2.2640  -2.2639  -2.2639  -2.0965
    -2.0965  -2.0965  -2.0965  -2.0295  -2.0295  -2.0172  -2.0172  -2.0172
    -2.0172  -1.7437  -1.6418  -1.6418  -1.4690  -1.4690  -1.4689  -1.4689
    -1.4650  -1.4650  -1.4650  -1.4649  -1.4581  -1.4581  -1.4580  -1.4580
    -1.3068  -1.3068  -1.2234  -1.2119  -0.6612  -0.6612   0.9328   0.9329
     0.9329   0.9329   1.0811   1.0811   1.0811   1.0811   2.2023   3.3528
     3.3528   3.3529   3.3529   4.0376   4.0376   5.1884   5.4652   5.4652
     5.4654   5.4654

     occupation numbers
     1.0000   1.0000   1.0000   1.0000   1.0000   1.0000   1.0000   1.0000
     1.0000   1.0000   1.0000   1.0000   1.0000   1.0000   1.0000   1.0000
     1.0000   1.0000   1.0000   1.0000   1.0000   1.0000   1.0000   1.0000
     1.0000   1.0000   1.0000   1.0000   1.0000   1.0000   1.0000   1.0000
     1.0000   1.0000   1.0000   1.0000   1.0000   1.0000   1.0000   1.0000
     1.0000   1.0000   1.0000   1.0000   1.0000   1.0000   1.0000   1.0000
     1.0000   1.0000   1.0000   1.0000   1.0000   1.0000   1.0000   1.0000
     1.0000   1.0000   1.0000   1.0000   1.0000   1.0000   1.0000   1.0000
     1.0000   1.0000   1.0000   1.0000   1.0000   1.0000   1.0000   1.0000
     1.0000   1.0000   1.0000   1.0000   1.0000   1.0000   1.0000   1.0000
[...]
Au            4.1712880000        6.2569154505        2.0396392605
Au            6.2569154505        4.1712880000        2.0396392605
Au            6.2569127549        6.2569127549        0.0458531924

     Writing output data file ./surface.save/
     NEW-OLD atomic charge density approx. for the potential

     Check: negative core charge=   -0.000004

[...]

     Self-consistent Calculation

[...]

     Threshold (ethr) on eigenvalues was too large:
     Diagonalizing with lowered threshold

     Davidson diagonalization with overlap
     ethr =  1.31E-08,  avg # of iterations =  6.2

[...]

     total energy              =   -1839.20554728 Ry
     estimated scf accuracy    <       0.00000007 Ry

     iteration #  5     ecut=    30.00 Ry     beta= 0.30
     Davidson diagonalization with overlap
     ethr =  3.85E-11,  avg # of iterations =  2.0

[...]

     End of self-consistent calculation

[...]

          k = 0.4000 0.4000 0.0000 ( 18510 PWs)   bands (ev):

    -6.1759  -5.8160  -5.8160  -5.5849  -4.8713  -4.8339  -4.7873  -4.7873
    -4.5716  -4.5716  -4.5398  -4.5398  -4.4844  -4.4844  -4.4220  -4.4220
    -4.2434  -4.2434  -4.2299  -4.0484  -4.0484  -4.0056  -4.0056  -3.9439
    -3.9439  -3.8095  -3.8095  -3.7888  -3.3845  -3.2134  -3.1844  -3.1843
    -3.1772  -3.1772  -3.0591  -2.9806  -2.9468  -2.9468  -2.8534  -2.8534
    -2.8500  -2.8059  -2.7137  -2.7137  -2.6285  -2.6068  -2.6068  -2.5954
    -2.5954  -2.4072  -2.3869  -2.3868  -2.3781  -2.3277  -2.3276  -2.3113
    -1.9967  -1.9967  -1.8789  -1.8788  -1.8393  -1.8393  -1.8158  -1.8158
    -1.8105  -1.8105  -1.8058  -1.7825  -1.6049  -1.6049  -1.5652  -1.5651
    -1.5398  -1.5398  -1.5307  -1.4218  -1.3946  -1.3946  -1.3493  -1.3493
    -1.1510  -1.1509  -1.1509  -1.1330  -0.3508   0.0935   0.0935   0.4749
     0.8876   0.8876   1.6438   1.6438   2.2658   2.2658   2.9506   2.9506
     3.5996   4.1014   4.1014   4.1953   4.1953   4.4214   4.4215   4.6542
     5.4318   5.4318

     occupation numbers
     1.0000   1.0000   1.0000   1.0000   1.0000   1.0000   1.0000   1.0000
     1.0000   1.0000   1.0000   1.0000   1.0000   1.0000   1.0000   1.0000
     1.0000   1.0000   1.0000   1.0000   1.0000   1.0000   1.0000   1.0000
     1.0000   1.0000   1.0000   1.0000   1.0000   1.0000   1.0000   1.0000
     1.0000   1.0000   1.0000   1.0000   1.0000   1.0000   1.0000   1.0000
     1.0000   1.0000   1.0000   1.0000   1.0000   1.0000   1.0000   1.0000
     1.0000   1.0000   1.0000   1.0000   1.0000   1.0000   1.0000   1.0000
     1.0000   1.0000   1.0000   1.0000   1.0000   1.0000   1.0000   1.0000
     1.0000   1.0000   1.0000   1.0000   1.0000   1.0000   1.0000   1.0000
     1.0000   1.0000   1.0000   1.0000   1.0000   1.0000   1.0000   1.0000
     1.0000   1.0000   1.0000   1.0000   1.0000   1.0000   1.0000   0.0021
     0.0000   0.0000   0.0000   0.0000   0.0000   0.0000   0.0000   0.0000
     0.0000   0.0000   0.0000   0.0000   0.0000   0.0000   0.0000   0.0000
     0.0000   0.0000

     the Fermi energy is     0.3921 ev

!    total energy              =   -1839.20554729 Ry
     estimated scf accuracy    <          6.8E-09 Ry
     smearing contrib. (-TS)   =      -0.00043710 Ry
     internal energy E=F+TS    =   -1839.20511019 Ry

     The total energy is F=E-TS. E is the sum of the following terms:
     one-electron contribution =   -3655.36127287 Ry
     hartree contribution      =    1955.36579517 Ry
     xc contribution           =    -994.63835216 Ry
     ewald contribution        =     855.42871967 Ry

     convergence has been achieved in   5 iterations

     negative rho (up, down):  7.920E-05 0.000E+00

     Forces acting on atoms (cartesian axes, Ry/au):

     atom    1 type  1   force =     0.00000000    0.00000000    0.00001900
     atom    2 type  1   force =     0.00000000    0.00000459   -0.00003679
     atom    3 type  1   force =     0.00000459    0.00000000   -0.00003679
     atom    4 type  1   force =     0.00000425    0.00000425    0.00005204
     atom    5 type  1   force =     0.00000000    0.00000000    0.00001463
     atom    6 type  1   force =     0.00000000   -0.00000459   -0.00003679
     atom    7 type  1   force =     0.00000541    0.00000000   -0.00003128
     atom    8 type  1   force =     0.00000425   -0.00000425    0.00005204
     atom    9 type  1   force =     0.00000000    0.00000000    0.00001463
     atom   10 type  1   force =     0.00000000    0.00000541   -0.00003128
     atom   11 type  1   force =    -0.00000459    0.00000000   -0.00003679
     atom   12 type  1   force =    -0.00000425    0.00000425    0.00005204
     atom   13 type  1   force =     0.00000000    0.00000000    0.00001589
     atom   14 type  1   force =     0.00000000   -0.00000541   -0.00003128
     atom   15 type  1   force =    -0.00000541    0.00000000   -0.00003128
     atom   16 type  1   force =    -0.00000425   -0.00000425    0.00005204
     The non-local contrib.  to forces
     atom    1 type  1   force =     0.00000000    0.00000000    0.01223869
     atom    2 type  1   force =     0.00000000    0.00000541   -0.01225902
     atom    3 type  1   force =     0.00000541    0.00000000   -0.01225902
     atom    4 type  1   force =     0.00000543    0.00000543    0.01225632
     atom    5 type  1   force =     0.00000000    0.00000000    0.01224594
     atom    6 type  1   force =     0.00000000   -0.00000541   -0.01225902
     atom    7 type  1   force =     0.00000471    0.00000000   -0.01226189
     atom    8 type  1   force =     0.00000543   -0.00000543    0.01225632
     atom    9 type  1   force =     0.00000000    0.00000000    0.01224594
     atom   10 type  1   force =     0.00000000    0.00000471   -0.01226189
     atom   11 type  1   force =    -0.00000541    0.00000000   -0.01225902
     atom   12 type  1   force =    -0.00000543    0.00000543    0.01225632
     atom   13 type  1   force =     0.00000000    0.00000000    0.01225608
     atom   14 type  1   force =     0.00000000   -0.00000471   -0.01226189
     atom   15 type  1   force =    -0.00000471    0.00000000   -0.01226189
     atom   16 type  1   force =    -0.00000543   -0.00000543    0.01225632
     The ionic contribution  to forces
     atom    1 type  1   force =    -0.00003967   -0.00003967  -32.86186325
     atom    2 type  1   force =    -0.00003967   -0.00055243   32.86477321
     atom    3 type  1   force =    -0.00055243   -0.00003967   32.86477321
     atom    4 type  1   force =    -0.00059904   -0.00059904  -32.86787517
     atom    5 type  1   force =    -0.00003967    0.00001511  -32.86159933
     atom    6 type  1   force =    -0.00003967    0.00057699   32.86475557
     atom    7 type  1   force =    -0.00051479    0.00001511   32.86487552
     atom    8 type  1   force =    -0.00059903    0.00062359  -32.86785753
     atom    9 type  1   force =     0.00001511   -0.00003967  -32.86159933
     atom   10 type  1   force =     0.00001511   -0.00051479   32.86487552
     atom   11 type  1   force =     0.00057699   -0.00003967   32.86475557
     atom   12 type  1   force =     0.00062359   -0.00059903  -32.86785753
     atom   13 type  1   force =     0.00001511    0.00001511  -32.86203232
     atom   14 type  1   force =     0.00001511    0.00053935   32.86485788
     atom   15 type  1   force =     0.00053935    0.00001511   32.86485788
     atom   16 type  1   force =     0.00062359    0.00062359  -32.86783989
     The local contribution  to forces
     atom    1 type  1   force =    -0.00000000   -0.00000000   32.81904761
     atom    2 type  1   force =    -0.00000000    0.00057187  -32.82189400
     atom    3 type  1   force =     0.00057187   -0.00000000  -32.82189400
     atom    4 type  1   force =     0.00061971    0.00061971   32.82505442
     atom    5 type  1   force =    -0.00000000    0.00004936   32.81875682
     atom    6 type  1   force =    -0.00000000   -0.00047315  -32.82189400
     atom    7 type  1   force =     0.00053668    0.00004937  -32.82197017
     atom    8 type  1   force =     0.00061971   -0.00052098   32.82505443
     atom    9 type  1   force =     0.00004936   -0.00000000   32.81875682
     atom   10 type  1   force =     0.00004937    0.00053668  -32.82197017
     atom   11 type  1   force =    -0.00047315   -0.00000000  -32.82189400
     atom   12 type  1   force =    -0.00052098    0.00061971   32.82505443
     atom   13 type  1   force =     0.00004936    0.00004936   32.81916694
     atom   14 type  1   force =     0.00004937   -0.00043796  -32.82197017
     atom   15 type  1   force =    -0.00043796    0.00004937  -32.82197017
     atom   16 type  1   force =    -0.00052098   -0.00052098   32.82505443
     The core correction contribution to forces
     atom    1 type  1   force =    -0.00000000   -0.00000000    0.03067302
     atom    2 type  1   force =    -0.00000000    0.00001559   -0.03068141
     atom    3 type  1   force =     0.00001559   -0.00000000   -0.03068141
     atom    4 type  1   force =     0.00001555    0.00001555    0.03066413
     atom    5 type  1   force =    -0.00000000    0.00001503    0.03067490
     atom    6 type  1   force =    -0.00000001    0.00001448   -0.03068141
     atom    7 type  1   force =     0.00001539    0.00001503   -0.03068457
     atom    8 type  1   force =     0.00001554    0.00001452    0.03066413
     atom    9 type  1   force =     0.00001503   -0.00000000    0.03067490
     atom   10 type  1   force =     0.00001503    0.00001539   -0.03068457
     atom   11 type  1   force =     0.00001448   -0.00000001   -0.03068141
     atom   12 type  1   force =     0.00001452    0.00001554    0.03066413
     atom   13 type  1   force =     0.00001503    0.00001503    0.03067645
     atom   14 type  1   force =     0.00001503    0.00001467   -0.03068458
     atom   15 type  1   force =     0.00001467    0.00001503   -0.03068458
     atom   16 type  1   force =     0.00001452    0.00001452    0.03066413
     The Hubbard contrib.    to forces
     atom    1 type  1   force =     0.00000000    0.00000000    0.00000000
     atom    2 type  1   force =     0.00000000    0.00000000    0.00000000
     atom    3 type  1   force =     0.00000000    0.00000000    0.00000000
     atom    4 type  1   force =     0.00000000    0.00000000    0.00000000
     atom    5 type  1   force =     0.00000000    0.00000000    0.00000000
     atom    6 type  1   force =     0.00000000    0.00000000    0.00000000
     atom    7 type  1   force =     0.00000000    0.00000000    0.00000000
     atom    8 type  1   force =     0.00000000    0.00000000    0.00000000
     atom    9 type  1   force =     0.00000000    0.00000000    0.00000000
     atom   10 type  1   force =     0.00000000    0.00000000    0.00000000
     atom   11 type  1   force =     0.00000000    0.00000000    0.00000000
     atom   12 type  1   force =     0.00000000    0.00000000    0.00000000
     atom   13 type  1   force =     0.00000000    0.00000000    0.00000000
     atom   14 type  1   force =     0.00000000    0.00000000    0.00000000
     atom   15 type  1   force =     0.00000000    0.00000000    0.00000000
     atom   16 type  1   force =     0.00000000    0.00000000    0.00000000
     The SCF correction term to forces
     atom    1 type  1   force =    -0.00000000   -0.00000000   -0.00008990
     atom    2 type  1   force =    -0.00000000    0.00004082    0.00002042
     atom    3 type  1   force =     0.00004082   -0.00000000    0.00002042
     atom    4 type  1   force =     0.00003928    0.00003928   -0.00007814
     atom    5 type  1   force =    -0.00000000   -0.00000000   -0.00007652
     atom    6 type  1   force =    -0.00000000   -0.00004082    0.00002042
     atom    7 type  1   force =     0.00004009   -0.00000000    0.00000584
     atom    8 type  1   force =     0.00003928   -0.00003928   -0.00007813
     atom    9 type  1   force =    -0.00000000   -0.00000000   -0.00007652
     atom   10 type  1   force =    -0.00000000    0.00004009    0.00000584
     atom   11 type  1   force =    -0.00004082   -0.00000000    0.00002042
     atom   12 type  1   force =    -0.00003928    0.00003928   -0.00007813
     atom   13 type  1   force =    -0.00000000   -0.00000000   -0.00006409
     atom   14 type  1   force =    -0.00000000   -0.00004009    0.00000583
     atom   15 type  1   force =    -0.00004009   -0.00000000    0.00000583
     atom   16 type  1   force =    -0.00003928   -0.00003928   -0.00007813

     Total force =     0.000147     Total SCF correction =     0.000275
     SCF correction compared to forces is large: reduce conv_thr to get better values

     Computing stress (Cartesian axis) and pressure

     negative rho (up, down):  7.920E-05 0.000E+00
          total   stress  (Ry/bohr**3)                   (kbar)     P=      -19.70
  -0.00019922   0.00000000   0.00000000          -29.31        0.00        0.00
   0.00000000  -0.00019922   0.00000000            0.00      -29.31        0.00
   0.00000000   0.00000000  -0.00000333            0.00        0.00       -0.49

     kinetic stress (kbar)   5920.00      0.00      0.00
                                0.00   5920.00      0.00
                                0.00      0.00   5993.28

     local   stress (kbar) -75383.40     -0.00      0.00
                               -0.00 -75383.40      0.00
                                0.00      0.00  89199.04

     nonloc. stress (kbar)  -3784.13      0.00      0.00
                                0.00  -3784.13      0.00
                                0.00      0.00  -3791.46

     hartree stress (kbar)  40738.67      0.00      0.00
                                0.00  40738.67      0.00
                                0.00      0.00 -38260.91

     exc-cor stress (kbar)  15341.71      0.00      0.00
                                0.00  15341.71      0.00
                                0.00      0.00  15335.08

     corecor stress (kbar) -17699.62     -0.00     -0.00
                               -0.00 -17699.62     -0.00
                               -0.00     -0.00 -17706.83

     ewald   stress (kbar)  34837.46      0.00      0.00
                                0.00  34837.46      0.00
                                0.00      0.00 -50768.70

     hubbard stress (kbar)      0.00      0.00      0.00
                                0.00      0.00      0.00
                                0.00      0.00      0.00

     DFT-D   stress (kbar)      0.00      0.00      0.00
                                0.00      0.00      0.00
                                0.00      0.00      0.00

     XDM     stress (kbar)      0.00      0.00      0.00
                                0.00      0.00      0.00
                                0.00      0.00      0.00

     dft-nl  stress (kbar)      0.00      0.00      0.00
                                0.00      0.00      0.00
                                0.00      0.00      0.00

     TS-vdW  stress (kbar)      0.00      0.00      0.00
                                0.00      0.00      0.00
                                0.00      0.00      0.00

     Energy error            =      7.0E-06
     Gradient error          =      5.2E-05

     bfgs converged in   7 scf cycles and   6 bfgs steps
     (criteria: energy <  1.0E-04 Ry, force <  1.0E-03 Ry/Bohr)

     End of BFGS Geometry Optimization

     Final energy   =   -1839.2055472874 Ry

     File ./surface.bfgs deleted, as requested
Begin final coordinates

ATOMIC_POSITIONS (angstrom)
Au            0.0000000000        0.0000000000        0.0461100500
Au            0.0000000000        2.0856574332        2.0396594634
Au            2.0856574332        0.0000000000        2.0396594634
Au            2.0856632451        2.0856632451        0.0458531924
Au            0.0000000000        4.1712880000        0.0461449832
Au            0.0000000000        6.2569185668        2.0396594634
Au            2.0856605495        4.1712880000        2.0396392605
Au            2.0856632451        6.2569127549        0.0458531924
Au            4.1712880000        0.0000000000        0.0461449832
Au            4.1712880000        2.0856605495        2.0396392605
Au            6.2569185668        0.0000000000        2.0396594634
Au            6.2569127549        2.0856632451        0.0458531924
Au            4.1712880000        4.1712880000        0.0461443185
Au            4.1712880000        6.2569154505        2.0396392605
Au            6.2569154505        4.1712880000        2.0396392605
Au            6.2569127549        6.2569127549        0.0458531924
End final coordinates

     Writing output data file ./surface.save/

     General routines

     Parallel routines

   This run was terminated on:   0:28: 7   6Dec2021

   JOB DONE.