     Program PWSCF v.6.7MaX starts on  6Dec2021 at 18:59:57

     R & G space division:  proc/nbgrp/npool/nimage =      64
     Reading input from au_surface.110.qe.in

     Current dimensions of program PWSCF are:
     Max number of different atomic species (ntypx) = 10
     Max number of k-points (npk) =  40000
     Max angular momentum in pseudopotentials (lmaxx) =  3

     Found symmetry operation: I + (  0.0000  0.3333  0.0000)
     This is a supercell, fractional translations are disabled

     bravais-lattice index     =            8
     lattice parameter (alat)  =      23.1203  a.u.
     unit-cell volume          =    9202.6773 (a.u.)^3
     number of atoms/cell      =           18
     number of atomic types    =            1
     number of electrons       =       198.00
     number of Kohn-Sham states=          119
     kinetic-energy cutoff     =      30.0000  Ry
     charge density cutoff     =     300.0000  Ry
     scf convergence threshold =      1.0E-06
     mixing beta               =       0.3000
     number of iterations used =            8  plain     mixing
     energy convergence thresh.=      1.0E-04
     force convergence thresh. =      1.0E-03
     Exchange-correlation= SLA  PW   PBE  PBE
                           (   1   4   3   4   0   0   0)
     nstep                     =           50

     celldm(1)=  23.120327  celldm(2)=   0.707106  celldm(3)=   1.053046
     celldm(4)=   0.000000  celldm(5)=   0.000000  celldm(6)=   0.000000

     crystal axes: (cart. coord. in units of alat)
               a(1) = (   1.000000   0.000000   0.000000 )
               a(2) = (   0.000000   0.707106   0.000000 )
               a(3) = (   0.000000   0.000000   1.053046 )

     reciprocal axes: (cart. coord. in units 2 pi/alat)
               b(1) = (  1.000000  0.000000  0.000000 )
               b(2) = (  0.000000  1.414214  0.000000 )
               b(3) = (  0.000000  0.000000  0.949626 )

     PseudoPot. # 1 for Au read from file:
     /expanse/lustre/projects/csd622/tpascal/nano110/qe/pseudo/au_pbe_v1.uspp.F.UPF
     MD5 check sum: 9d7f43293ad2c663164586bc4b293ffc
     Pseudo is Ultrasoft + core correction, Zval = 11.0
     Generated by new atomic code, or converted to UPF format
     Using radial grid of  985 points,  7 beta functions with:
                l(1) =   0
                l(2) =   0
                l(3) =   1
                l(4) =   1
                l(5) =   2
                l(6) =   2
                l(7) =   3
     Q(r) pseudized with  6 coefficients,  rinner =    1.900   1.900   1.900
                                                       1.900   1.900   1.900
                                                       1.900

     atomic species   valence    mass     pseudopotential
        Au            11.00   196.96655     Au( 1.00)

      4 Sym. Ops. (no inversion) found

                                    s                        frac. trans.

      isym =  1     identity

 cryst.   s( 1) = (     1          0          0      )
                  (     0          1          0      )
                  (     0          0          1      )

 cart.    s( 1) = (  1.0000000  0.0000000  0.0000000 )
                  (  0.0000000  1.0000000  0.0000000 )
                  (  0.0000000  0.0000000  1.0000000 )

      isym =  2     180 deg rotation - cart. axis [0,0,1]

[...]

      isym =  3     inv. 180 deg rotation - cart. axis [0,1,0]

[...]

      isym =  4     inv. 180 deg rotation - cart. axis [1,0,0]

 cryst.   s( 4) = (    -1          0          0      )
                  (     0          1          0      )
                  (     0          0          1      )

 cart.    s( 4) = ( -1.0000000  0.0000000  0.0000000 )
                  (  0.0000000  1.0000000  0.0000000 )
                  (  0.0000000  0.0000000  1.0000000 )

     point group C_2v (mm2)
     there are  4 classes
     the character table:

       E     C2    s_v   s_v'
A_1    1.00  1.00  1.00  1.00
A_2    1.00  1.00 -1.00 -1.00
B_1    1.00 -1.00  1.00 -1.00
B_2    1.00 -1.00 -1.00  1.00

     the symmetry operations in each class and the name of the first element:

     E        1
          identity
     C2       2
          180 deg rotation - cart. axis [0,0,1]
     s_v      4
          inv. 180 deg rotation - cart. axis [1,0,0]
     s_v'     3
          inv. 180 deg rotation - cart. axis [0,1,0]

   Cartesian axes

     site n.     atom                  positions (alat units)
         1           Au  tau(   1) = (   0.1666667   0.0000000   0.0000000  )
         2           Au  tau(   2) = (   0.0000000   0.1178511   0.1178511  )
         3           Au  tau(   3) = (   0.1666667   0.2357022   0.0000000  )
         4           Au  tau(   4) = (   0.0000000   0.3535534   0.1178511  )
         5           Au  tau(   5) = (   0.1666667   0.4714045   0.0000000  )
         6           Au  tau(   6) = (   0.0000000   0.5892556   0.1178511  )
         7           Au  tau(   7) = (   0.5000000   0.0000000   0.0000000  )
         8           Au  tau(   8) = (   0.3333333   0.1178511   0.1178511  )
         9           Au  tau(   9) = (   0.5000000   0.2357022   0.0000000  )
        10           Au  tau(  10) = (   0.3333333   0.3535534   0.1178511  )
        11           Au  tau(  11) = (   0.5000000   0.4714045   0.0000000  )
        12           Au  tau(  12) = (   0.3333333   0.5892556   0.1178511  )
        13           Au  tau(  13) = (   0.8333333   0.0000000   0.0000000  )
        14           Au  tau(  14) = (   0.6666667   0.1178511   0.1178511  )
        15           Au  tau(  15) = (   0.8333333   0.2357022   0.0000000  )
        16           Au  tau(  16) = (   0.6666667   0.3535534   0.1178511  )
        17           Au  tau(  17) = (   0.8333333   0.4714045   0.0000000  )
        18           Au  tau(  18) = (   0.6666667   0.5892556   0.1178511  )

   Crystallographic axes

     site n.     atom                  positions (cryst. coord.)
         1           Au  tau(   1) = (  0.1666667  0.0000000  0.0000000  )
         2           Au  tau(   2) = (  0.0000000  0.1666667  0.1119145  )
         3           Au  tau(   3) = (  0.1666667  0.3333335  0.0000000  )
         4           Au  tau(   4) = (  0.0000000  0.5000002  0.1119145  )
         5           Au  tau(   5) = (  0.1666667  0.6666670  0.0000000  )
         6           Au  tau(   6) = (  0.0000000  0.8333337  0.1119145  )
         7           Au  tau(   7) = (  0.5000000  0.0000000  0.0000000  )
         8           Au  tau(   8) = (  0.3333333  0.1666667  0.1119145  )
         9           Au  tau(   9) = (  0.5000000  0.3333335  0.0000000  )
        10           Au  tau(  10) = (  0.3333333  0.5000002  0.1119145  )
        11           Au  tau(  11) = (  0.5000000  0.6666670  0.0000000  )
        12           Au  tau(  12) = (  0.3333333  0.8333337  0.1119145  )
        13           Au  tau(  13) = (  0.8333333  0.0000000  0.0000000  )
        14           Au  tau(  14) = (  0.6666667  0.1666667  0.1119145  )
        15           Au  tau(  15) = (  0.8333333  0.3333335  0.0000000  )
        16           Au  tau(  16) = (  0.6666667  0.5000002  0.1119145  )
        17           Au  tau(  17) = (  0.8333333  0.6666670  0.0000000  )
        18           Au  tau(  18) = (  0.6666667  0.8333337  0.1119145  )

     number of k points=     9  Gaussian smearing, width (Ry)=  0.0030
                       cart. coord. in units 2pi/alat
        k(    1) = (   0.0000000   0.0000000   0.0000000), wk =   0.1250000
        k(    2) = (   0.0000000   0.3535536   0.0000000), wk =   0.2500000
        k(    3) = (   0.0000000  -0.7071072   0.0000000), wk =   0.1250000
        k(    4) = (   0.2500000   0.0000000   0.0000000), wk =   0.2500000
        k(    5) = (   0.2500000   0.3535536   0.0000000), wk =   0.5000000
        k(    6) = (   0.2500000  -0.7071072   0.0000000), wk =   0.2500000
        k(    7) = (  -0.5000000   0.0000000   0.0000000), wk =   0.1250000
        k(    8) = (  -0.5000000   0.3535536   0.0000000), wk =   0.2500000
        k(    9) = (  -0.5000000  -0.7071072   0.0000000), wk =   0.1250000

                       cryst. coord.
        k(    1) = (   0.0000000   0.0000000   0.0000000), wk =   0.1250000
        k(    2) = (   0.0000000   0.2500000   0.0000000), wk =   0.2500000
        k(    3) = (   0.0000000  -0.5000000   0.0000000), wk =   0.1250000
        k(    4) = (   0.2500000   0.0000000   0.0000000), wk =   0.2500000
        k(    5) = (   0.2500000   0.2500000   0.0000000), wk =   0.5000000
        k(    6) = (   0.2500000  -0.5000000   0.0000000), wk =   0.2500000
        k(    7) = (  -0.5000000   0.0000000   0.0000000), wk =   0.1250000
        k(    8) = (  -0.5000000   0.2500000   0.0000000), wk =   0.2500000
        k(    9) = (  -0.5000000  -0.5000000   0.0000000), wk =   0.1250000

     Check: negative core charge=   -0.000004

     Initial potential from superposition of free atoms

     starting charge  197.99780, renormalised to  198.00000

     negative rho (up, down):  2.553E-05 0.000E+00
     Starting wfcs are  162 randomized atomic wfcs

     Self-consistent Calculation

     iteration #  1     ecut=    30.00 Ry     beta= 0.30
     Davidson diagonalization with overlap
     ethr =  1.00E-02,  avg # of iterations =  2.0

     Threshold (ethr) on eigenvalues was too large:
     Diagonalizing with lowered threshold

     Davidson diagonalization with overlap
     ethr =  3.26E-04,  avg # of iterations =  2.2

     negative rho (up, down):  2.098E-05 0.000E+00

     total energy              =   -2068.80694029 Ry
     estimated scf accuracy    <       0.75578021 Ry

[...]

     End of self-consistent calculation

          k = 0.0000 0.0000 0.0000 ( 25547 PWs)   bands (ev):

    -6.8511  -6.2237  -6.2236  -5.7789  -5.7788  -5.7325  -5.1322  -5.1322
    -4.8549  -4.8549  -4.8490  -4.8490  -4.8490  -4.8490  -4.7171  -4.7170
    -4.7054  -4.7054  -4.7054  -4.7054  -4.6959  -4.6959  -4.5602  -4.5602
    -4.5602  -4.5602  -4.4326  -4.4131  -4.4131  -4.4131  -4.4131  -4.2996
    -4.2996  -4.1882  -3.9314  -3.8376  -3.8375  -3.6777  -3.6777  -3.6777
    -3.6777  -3.5960  -3.5960  -3.5349  -3.5349  -3.3841  -3.3841  -3.3641
    -3.3030  -3.3030  -3.1550  -3.1550  -3.1550  -3.1550  -3.1504  -3.1504
    -3.1288  -3.1288  -3.1068  -3.1068  -3.1020  -3.1020  -3.1019  -3.1019
    -2.8620  -2.8012  -2.8012  -2.8012  -2.8012  -2.7722  -2.6284  -2.5750
    -2.5750  -2.4569  -2.4569  -2.4569  -2.4569  -2.3965  -2.3965  -2.3729
    -2.3729  -2.3728  -2.3728  -2.3281  -2.3281  -2.3026  -2.1201  -2.1201
    -2.0908  -2.0908  -2.0640  -2.0640  -1.8471  -1.8471  -1.8448  -1.3545
    -1.3545  -1.3545  -1.3545  -0.8679  -0.5366  -0.5366   1.0045   1.0045
     1.2766   1.2766   1.2766   1.2766   1.4487   1.4487   2.9790   3.1765
     3.1765   4.2241   4.2241   4.2242   4.2242   4.8585   4.8591

     occupation numbers
     1.0000   1.0000   1.0000   1.0000   1.0000   1.0000   1.0000   1.0000
     1.0000   1.0000   1.0000   1.0000   1.0000   1.0000   1.0000   1.0000
     1.0000   1.0000   1.0000   1.0000   1.0000   1.0000   1.0000   1.0000
     1.0000   1.0000   1.0000   1.0000   1.0000   1.0000   1.0000   1.0000
[...]
    -3.6066  -3.6065  -3.3997  -3.3994  -3.3994  -3.3992  -3.2749  -3.2749
    -3.2745  -3.2745  -3.2431  -3.2431  -3.2430  -3.2429  -3.1422  -3.1422
    -3.0997  -3.0995  -3.0993  -3.0991  -3.0476  -3.0475  -3.0474  -3.0472
    -2.6730  -2.6730  -2.6730  -2.6730  -2.5418  -2.5418  -2.5417  -2.5416
    -2.1074  -2.1073  -2.1072  -2.1071  -1.8694  -1.8694  -1.8694  -1.8694
    -1.7086  -1.7086  -1.6852  -1.6852  -1.6849  -1.6848  -0.9948  -0.9948
    -0.9946  -0.9946   0.8532   0.8537   0.8538   0.8542   0.8819   0.8819
     0.8820   0.8820   1.8568   1.8568   3.4712   3.4713   3.4714   3.4716
     3.5683   3.5684   3.5689   3.5689   3.9331   3.9331   4.2282

     occupation numbers
     1.0000   1.0000   1.0000   1.0000   1.0000   1.0000   1.0000   1.0000
     1.0000   1.0000   1.0000   1.0000   1.0000   1.0000   1.0000   1.0000
     1.0000   1.0000   1.0000   1.0000   1.0000   1.0000   1.0000   1.0000
     1.0000   1.0000   1.0000   1.0000   1.0000   1.0000   1.0000   1.0000
     1.0000   1.0000   1.0000   1.0000   1.0000   1.0000   1.0000   1.0000
     1.0000   1.0000   1.0000   1.0000   1.0000   1.0000   1.0000   1.0000
     1.0000   1.0000   1.0000   1.0000   1.0000   1.0000   1.0000   1.0000
     1.0000   1.0000   1.0000   1.0000   1.0000   1.0000   1.0000   1.0000
     1.0000   1.0000   1.0000   1.0000   1.0000   1.0000   1.0000   1.0000
     1.0000   1.0000   1.0000   1.0000   1.0000   1.0000   1.0000   1.0000
     1.0000   1.0000   1.0000   1.0000   1.0000   1.0000   1.0000   1.0000
     1.0000   1.0000   1.0000   1.0000   1.0000   1.0000   1.0000   1.0000
     1.0000   1.0000   0.0000   0.0000   0.0000   0.0000   0.0000   0.0000
     0.0000   0.0000   0.0000   0.0000   0.0000   0.0000   0.0000   0.0000
     0.0000   0.0000   0.0000   0.0000   0.0000   0.0000   0.0000

     the Fermi energy is    -0.2251 ev

!    total energy              =   -2069.02478935 Ry
     estimated scf accuracy    <          5.8E-09 Ry
     smearing contrib. (-TS)   =      -0.00011101 Ry
     internal energy E=F+TS    =   -2069.02467834 Ry

     The total energy is F=E-TS. E is the sum of the following terms:
     one-electron contribution =   -3469.02439567 Ry
     hartree contribution      =    1872.04274915 Ry
     xc contribution           =   -1119.90314513 Ry
     ewald contribution        =     647.86011330 Ry

     convergence has been achieved in   5 iterations

     negative rho (up, down):  1.281E-04 0.000E+00

     Forces acting on atoms (cartesian axes, Ry/au):

     atom    1 type  1   force =     0.00003138    0.00000000    0.00001479
     atom    2 type  1   force =     0.00000000   -0.00003459    0.00000678
     atom    3 type  1   force =     0.00003179   -0.00003346   -0.00000963
     atom    4 type  1   force =     0.00000000    0.00000000    0.00003110
     atom    5 type  1   force =     0.00003179    0.00003346   -0.00000963
     atom    6 type  1   force =     0.00000000    0.00003459    0.00000678
     atom    7 type  1   force =     0.00000000    0.00000000    0.00003317
     atom    8 type  1   force =     0.00003261   -0.00003436   -0.00002249
     atom    9 type  1   force =     0.00000000   -0.00003388    0.00000877
     atom   10 type  1   force =     0.00003233    0.00000000    0.00000177
     atom   11 type  1   force =     0.00000000    0.00003388    0.00000877
     atom   12 type  1   force =     0.00003261    0.00003436   -0.00002249
     atom   13 type  1   force =    -0.00003138    0.00000000    0.00001479
     atom   14 type  1   force =    -0.00003261   -0.00003436   -0.00002249
     atom   15 type  1   force =    -0.00003179   -0.00003346   -0.00000963
     atom   16 type  1   force =    -0.00003233    0.00000000    0.00000177
     atom   17 type  1   force =    -0.00003179    0.00003346   -0.00000963
     atom   18 type  1   force =    -0.00003261    0.00003436   -0.00002249
     The non-local contrib.  to forces
     atom    1 type  1   force =     0.00001699    0.00000000   -0.03940450
     atom    2 type  1   force =     0.00000000    0.00000251    0.03939330
     atom    3 type  1   force =     0.00001686    0.00000314   -0.03939846
     atom    4 type  1   force =     0.00000000    0.00000000    0.03938827
     atom    5 type  1   force =     0.00001686   -0.00000314   -0.03939846
     atom    6 type  1   force =     0.00000000   -0.00000251    0.03939330
     atom    7 type  1   force =     0.00000000    0.00000000   -0.03942719
     atom    8 type  1   force =     0.00001394    0.00000200    0.03941632
     atom    9 type  1   force =     0.00000000    0.00000248   -0.03942215
     atom   10 type  1   force =     0.00001392    0.00000000    0.03941222
     atom   11 type  1   force =    -0.00000000   -0.00000248   -0.03942215
     atom   12 type  1   force =     0.00001394   -0.00000200    0.03941632
     atom   13 type  1   force =    -0.00001699    0.00000000   -0.03940450
     atom   14 type  1   force =    -0.00001394    0.00000200    0.03941632
     atom   15 type  1   force =    -0.00001686    0.00000314   -0.03939846
     atom   16 type  1   force =    -0.00001392    0.00000000    0.03941222
     atom   17 type  1   force =    -0.00001686   -0.00000314   -0.03939846
     atom   18 type  1   force =    -0.00001394   -0.00000200    0.03941632
     The ionic contribution  to forces
     atom    1 type  1   force =     0.00154861    0.00003639  -16.08636036
     atom    2 type  1   force =    -0.00000000   -0.00323345   16.08480988
     atom    3 type  1   force =     0.00158173   -0.00314247  -16.09028693
     atom    4 type  1   force =     0.00000000   -0.00000751   16.08960233
     atom    5 type  1   force =     0.00158173    0.00311352  -16.09028693
     atom    6 type  1   force =    -0.00000000    0.00323353   16.08482581
     atom    7 type  1   force =    -0.00000000    0.00003639  -16.09259886
     atom    8 type  1   force =     0.00134466   -0.00318543   16.09180744
     atom    9 type  1   force =    -0.00000000   -0.00314064  -16.09679266
     atom   10 type  1   force =     0.00135707   -0.00000751   16.09677649
     atom   11 type  1   force =    -0.00000000    0.00311169  -16.09679266
     atom   12 type  1   force =     0.00134467    0.00318551   16.09182337
     atom   13 type  1   force =    -0.00154861    0.00003639  -16.08636036
     atom   14 type  1   force =    -0.00134466   -0.00318543   16.09180744
     atom   15 type  1   force =    -0.00158173   -0.00314247  -16.09028693
     atom   16 type  1   force =    -0.00135707   -0.00000751   16.09677649
     atom   17 type  1   force =    -0.00158173    0.00311352  -16.09028693
     atom   18 type  1   force =    -0.00134467    0.00318551   16.09182337
     The local contribution  to forces
     atom    1 type  1   force =    -0.00154303    0.00000000   16.10150272
     atom    2 type  1   force =    -0.00000000    0.00314518  -16.09992528
     atom    3 type  1   force =    -0.00157384    0.00304148   16.10538500
     atom    4 type  1   force =     0.00000000   -0.00004369  -16.10466622
     atom    5 type  1   force =    -0.00157384   -0.00312885   16.10538500
     atom    6 type  1   force =     0.00000000   -0.00323255  -16.09992528
     atom    7 type  1   force =     0.00000000    0.00000000   16.10778193
     atom    8 type  1   force =    -0.00133946    0.00310054  -16.10696914
     atom    9 type  1   force =     0.00000000    0.00304227   16.11193291
     atom   10 type  1   force =    -0.00135039   -0.00004369  -16.11188813
     atom   11 type  1   force =     0.00000000   -0.00312965   16.11193291
     atom   12 type  1   force =    -0.00133946   -0.00318792  -16.10696914
     atom   13 type  1   force =     0.00154303    0.00000000   16.10150272
     atom   14 type  1   force =     0.00133946    0.00310054  -16.10696914
     atom   15 type  1   force =     0.00157384    0.00304148   16.10538500
     atom   16 type  1   force =     0.00135039   -0.00004369  -16.11188813
     atom   17 type  1   force =     0.00157384   -0.00312885   16.10538500
     atom   18 type  1   force =     0.00133946   -0.00318792  -16.10696914
     The core correction contribution to forces
     atom    1 type  1   force =    -0.00001065   -0.00000000    0.02428331
     atom    2 type  1   force =     0.00000000   -0.00000757   -0.02428437
     atom    3 type  1   force =    -0.00001078   -0.00000814    0.02429579
     atom    4 type  1   force =    -0.00000000   -0.00001511   -0.02429712
     atom    5 type  1   force =    -0.00001077   -0.00002209    0.02429579
     atom    6 type  1   force =     0.00000000   -0.00002265   -0.02428436
     atom    7 type  1   force =     0.00000000    0.00000000    0.02427880
     atom    8 type  1   force =    -0.00000457   -0.00000790   -0.02428880
     atom    9 type  1   force =     0.00000000   -0.00000806    0.02429111
     atom   10 type  1   force =    -0.00000442   -0.00001512   -0.02430157
     atom   11 type  1   force =     0.00000000   -0.00002218    0.02429111
     atom   12 type  1   force =    -0.00000457   -0.00002233   -0.02428879
     atom   13 type  1   force =     0.00001065   -0.00000000    0.02428331
     atom   14 type  1   force =     0.00000457   -0.00000790   -0.02428880
     atom   15 type  1   force =     0.00001078   -0.00000814    0.02429579
     atom   16 type  1   force =     0.00000442   -0.00001512   -0.02430157
     atom   17 type  1   force =     0.00001077   -0.00002209    0.02429579
     atom   18 type  1   force =     0.00000457   -0.00002233   -0.02428879
     The Hubbard contrib.    to forces
     atom    1 type  1   force =     0.00000000    0.00000000    0.00000000
     atom    2 type  1   force =     0.00000000    0.00000000    0.00000000
     atom    3 type  1   force =     0.00000000    0.00000000    0.00000000
     atom    4 type  1   force =     0.00000000    0.00000000    0.00000000
     atom    5 type  1   force =     0.00000000    0.00000000    0.00000000
     atom    6 type  1   force =     0.00000000    0.00000000    0.00000000
     atom    7 type  1   force =     0.00000000    0.00000000    0.00000000
     atom    8 type  1   force =     0.00000000    0.00000000    0.00000000
     atom    9 type  1   force =     0.00000000    0.00000000    0.00000000
     atom   10 type  1   force =     0.00000000    0.00000000    0.00000000
     atom   11 type  1   force =     0.00000000    0.00000000    0.00000000
     atom   12 type  1   force =     0.00000000    0.00000000    0.00000000
     atom   13 type  1   force =     0.00000000    0.00000000    0.00000000
     atom   14 type  1   force =     0.00000000    0.00000000    0.00000000
     atom   15 type  1   force =     0.00000000    0.00000000    0.00000000
     atom   16 type  1   force =     0.00000000    0.00000000    0.00000000
     atom   17 type  1   force =     0.00000000    0.00000000    0.00000000
     atom   18 type  1   force =     0.00000000    0.00000000    0.00000000
     The SCF correction term to forces
     atom    1 type  1   force =     0.00001946    0.00000000   -0.00000582
     atom    2 type  1   force =     0.00000000   -0.00000002    0.00000585
     atom    3 type  1   force =     0.00001782   -0.00000075   -0.00000447
     atom    4 type  1   force =    -0.00000000    0.00000000    0.00000440
     atom    5 type  1   force =     0.00001782    0.00000075   -0.00000447
     atom    6 type  1   force =     0.00000000    0.00000002    0.00000585
     atom    7 type  1   force =    -0.00000000    0.00000000   -0.00000094
     atom    8 type  1   force =     0.00001803   -0.00000234    0.00000430
     atom    9 type  1   force =    -0.00000000   -0.00000321    0.00000014
     atom   10 type  1   force =     0.00001616    0.00000000    0.00000333
     atom   11 type  1   force =    -0.00000000    0.00000321    0.00000014
     atom   12 type  1   force =     0.00001803    0.00000234    0.00000430
     atom   13 type  1   force =    -0.00001946    0.00000000   -0.00000582
     atom   14 type  1   force =    -0.00001803   -0.00000234    0.00000430
     atom   15 type  1   force =    -0.00001782   -0.00000075   -0.00000447
     atom   16 type  1   force =    -0.00001616    0.00000000    0.00000333
     atom   17 type  1   force =    -0.00001782    0.00000075   -0.00000447
     atom   18 type  1   force =    -0.00001803    0.00000234    0.00000430

     Total force =     0.000177     Total SCF correction =     0.000065
     SCF correction compared to forces is large: reduce conv_thr to get better values

     Computing stress (Cartesian axis) and pressure

     negative rho (up, down):  1.281E-04 0.000E+00
          total   stress  (Ry/bohr**3)                   (kbar)     P=       18.99
   0.00030436   0.00000000   0.00000000           44.77        0.00        0.00
   0.00000000   0.00008465   0.00000000            0.00       12.45        0.00
   0.00000000   0.00000000  -0.00000178            0.00        0.00       -0.26

     kinetic stress (kbar)   4809.93      0.00      0.00
                                0.00   4789.85      0.00
                                0.00      0.00   4916.32

     local   stress (kbar) -51451.85     -0.00      0.00
                               -0.00 -52384.37      0.00
                                0.00      0.00  64032.70

     nonloc. stress (kbar)  -3050.30      0.00      0.00
                                0.00  -3043.10      0.00
                                0.00      0.00  -3058.64

     hartree stress (kbar)  27939.90     -0.00     -0.00
                               -0.00  28312.03      0.00
                               -0.00      0.00 -26327.27

     exc-cor stress (kbar)  12480.61     -0.00     -0.00
                               -0.00  12481.49     -0.00
                               -0.00     -0.00  12469.23

     corecor stress (kbar) -14402.74      0.00      0.00
                                0.00 -14400.30     -0.00
                                0.00     -0.00 -14412.59

     ewald   stress (kbar)  23719.23     -0.00     -0.00
                               -0.00  24256.85     -0.00
                               -0.00     -0.00 -37620.02

     hubbard stress (kbar)      0.00      0.00      0.00
                                0.00      0.00      0.00
                                0.00      0.00      0.00

     DFT-D   stress (kbar)      0.00      0.00      0.00
                                0.00      0.00      0.00
                                0.00      0.00      0.00

     XDM     stress (kbar)      0.00      0.00      0.00
                                0.00      0.00      0.00
                                0.00      0.00      0.00

     dft-nl  stress (kbar)      0.00      0.00      0.00
                                0.00      0.00      0.00
                                0.00      0.00      0.00

     TS-vdW  stress (kbar)      0.00      0.00      0.00
                                0.00      0.00      0.00
                                0.00      0.00      0.00

     Energy error            =      8.2E-07
     Gradient error          =      3.5E-05

     bfgs converged in   9 scf cycles and   8 bfgs steps
     (criteria: energy <  1.0E-04 Ry, force <  1.0E-03 Ry/Bohr)

     End of BFGS Geometry Optimization

     Final energy   =   -2069.0247893461 Ry

     File ./surface.bfgs deleted, as requested
Begin final coordinates

ATOMIC_POSITIONS (angstrom)
Au            2.0391343036        0.0000000000        0.2628508228
Au            0.0000000000        1.4420028421        1.1789283029
Au            2.0391352662        2.8838837285        0.2627655105
Au            0.0000000000        4.3256370000        1.1790514580
Au            2.0391352662        5.7673902715        0.2627655105
Au            0.0000000000        7.2092711579        1.1789283029
Au            6.1173750000        0.0000000000        0.2625958375
Au            4.0782582467        1.4420009038        1.1792306037
Au            6.1173750000        2.8838832224        0.2625005952
Au            4.0782599858        4.3256370000        1.1793599029
Au            6.1173750000        5.7673907776        0.2625005952
Au            4.0782582467        7.2092730962        1.1792306037
Au           10.1956156964        0.0000000000        0.2628508228
Au            8.1564917533        1.4420009038        1.1792306037
Au           10.1956147338        2.8838837285        0.2627655105
Au            8.1564900142        4.3256370000        1.1793599029
Au           10.1956147338        5.7673902715        0.2627655105
Au            8.1564917533        7.2092730962        1.1792306037
End final coordinates

     Writing output data file ./surface.save/

     General routines

     Parallel routines

   This run was terminated on:  19: 6:16   6Dec2021

   JOB DONE.