     Program PWSCF v.6.7MaX starts on  9Dec2021 at 17:50:31

     R & G space division:  proc/nbgrp/npool/nimage =      32
     Reading input from ag_surface.111.qe.in

     Current dimensions of program PWSCF are:
     Max number of different atomic species (ntypx) = 10
     Max number of k-points (npk) =  40000
     Max angular momentum in pseudopotentials (lmaxx) =  3

     Found symmetry operation: I + ( -0.0000  0.3333  0.0000)
     This is a supercell, fractional translations are disabled

     bravais-lattice index     =           14
     lattice parameter (alat)  =      16.6785  a.u.
     unit-cell volume          =    7833.0029 (a.u.)^3
     number of atoms/cell      =           27
     number of atomic types    =            1
     number of electrons       =       513.00
     number of Kohn-Sham states=          308
     kinetic-energy cutoff     =      30.0000  Ry
     charge density cutoff     =     300.0000  Ry
     scf convergence threshold =      1.0E-06
     mixing beta               =       0.3000
     number of iterations used =            8  plain     mixing
     energy convergence thresh.=      1.0E-04
     force convergence thresh. =      1.0E-03
     Exchange-correlation=  SLA  PW   PBX  PBC
                           (   1   4   3   4   0   0   0)
     nstep                     =           50

     celldm(1)=  16.678458  celldm(2)=   1.000000  celldm(3)=   1.949530
     celldm(4)=   0.000000  celldm(5)=   0.000000  celldm(6)=  -0.500000

     crystal axes: (cart. coord. in units of alat)
               a(1) = (   1.000000   0.000000   0.000000 )
               a(2) = (  -0.500000   0.866025   0.000000 )
               a(3) = (   0.000000   0.000000   1.949530 )

     reciprocal axes: (cart. coord. in units 2 pi/alat)
               b(1) = (  1.000000  0.577350 -0.000000 )
               b(2) = (  0.000000  1.154701  0.000000 )
               b(3) = (  0.000000 -0.000000  0.512944 )

     PseudoPot. # 1 for Ag read from file:
     /expanse/lustre/projects/csd622/tpascal/nano110/qe/pseudo/ag_pbe_v1.4.uspp.F.UPF
     MD5 check sum: d66d668201baa78d5eb5b04ef7011058
     Pseudo is Ultrasoft + core correction, Zval = 19.0
     Generated by new atomic code, or converted to UPF format
     Using radial grid of  887 points,  6 beta functions with:
                l(1) =   0
                l(2) =   0
                l(3) =   1
                l(4) =   1
                l(5) =   2
                l(6) =   2
     Q(r) pseudized with  6 coefficients,  rinner =    1.300   1.300   1.300
                                                       1.300   1.300

     atomic species   valence    mass     pseudopotential
        Ag            19.00   107.86820     Ag( 1.00)

      6 Sym. Ops. (no inversion) found

                                    s                        frac. trans.

      isym =  1     identity

 cryst.   s( 1) = (     1          0          0      )
                  (     0          1          0      )
                  (     0          0          1      )

 cart.    s( 1) = (  1.0000000  0.0000000  0.0000000 )
                  (  0.0000000  1.0000000  0.0000000 )
                  (  0.0000000  0.0000000  1.0000000 )

      isym =  2     120 deg rotation - cryst. axis [0,0,1]

[...]

      isym =  3     120 deg rotation - cryst. axis [0,0,-1]

[...]

      isym =  4     inv. 180 deg rotation - cart. axis [1,0,0]

[...]

      isym =  5     inv. 180 deg rotation - cryst. axis [0,1,0]

[...]

      isym =  6     inv. 180 deg rotation - cryst. axis [1,1,0]

 cryst.   s( 6) = (     0         -1          0      )
                  (    -1          0          0      )
                  (     0          0          1      )

 cart.    s( 6) = (  0.5000000 -0.8660254  0.0000000 )
                  ( -0.8660254 -0.5000000  0.0000000 )
                  (  0.0000000  0.0000000  1.0000000 )

     point group C_3v (3m)
     there are  3 classes
     the character table:

       E     2C3   3s_v
A_1    1.00  1.00  1.00
A_2    1.00  1.00 -1.00
E      2.00 -1.00  0.00

     the symmetry operations in each class and the name of the first element:

     E        1
          identity
     2C3      2    3
          120 deg rotation - cryst. axis [0,0,1]
     3s_v     4    5    6
          inv. 180 deg rotation - cart. axis [1,0,0]

   Cartesian axes

     site n.     atom                  positions (alat units)
         1           Ag  tau(   1) = (  -0.0000002   0.1924501   0.5443311  )
         2           Ag  tau(   2) = (   0.0000000   0.0000000   0.0000000  )
         3           Ag  tau(   3) = (   0.1666668   0.0962249   0.2721651  )
         4           Ag  tau(   4) = (  -0.1666668   0.4811251   0.5443311  )
         5           Ag  tau(   5) = (  -0.1666666   0.2886750   0.0000000  )
         6           Ag  tau(   6) = (   0.0000002   0.3848999   0.2721651  )
         7           Ag  tau(   7) = (  -0.3333333   0.7698001   0.5443311  )
         8           Ag  tau(   8) = (  -0.3333332   0.5773500   0.0000000  )
         9           Ag  tau(   9) = (  -0.1666664   0.6735749   0.2721651  )
        10           Ag  tau(  10) = (   0.3333330   0.1924501   0.5443311  )
        11           Ag  tau(  11) = (   0.3333332   0.0000000   0.0000000  )
        12           Ag  tau(  12) = (   0.4999999   0.0962249   0.2721651  )
        13           Ag  tau(  13) = (   0.1666664   0.4811251   0.5443311  )
        14           Ag  tau(  14) = (   0.1666666   0.2886750   0.0000000  )
        15           Ag  tau(  15) = (   0.3333333   0.3848999   0.2721651  )
        16           Ag  tau(  16) = (  -0.0000002   0.7698001   0.5443311  )
        17           Ag  tau(  17) = (   0.0000000   0.5773500   0.0000000  )
        18           Ag  tau(  18) = (   0.1666668   0.6735749   0.2721651  )
        19           Ag  tau(  19) = (   0.6666662   0.1924501   0.5443311  )
        20           Ag  tau(  20) = (   0.6666664   0.0000000   0.0000000  )
        21           Ag  tau(  21) = (   0.8333331   0.0962249   0.2721651  )
        22           Ag  tau(  22) = (   0.4999996   0.4811251   0.5443311  )
        23           Ag  tau(  23) = (   0.4999998   0.2886750   0.0000000  )
        24           Ag  tau(  24) = (   0.6666665   0.3848999   0.2721651  )
        25           Ag  tau(  25) = (   0.3333330   0.7698001   0.5443311  )
        26           Ag  tau(  26) = (   0.3333332   0.5773500   0.0000000  )
        27           Ag  tau(  27) = (   0.4999999   0.6735749   0.2721651  )

   Crystallographic axes

     site n.     atom                  positions (cryst. coord.)
         1           Ag  tau(   1) = (  0.1111109  0.2222222  0.2792114  )
         2           Ag  tau(   2) = (  0.0000000  0.0000000  0.0000000  )
         3           Ag  tau(   3) = (  0.2222222  0.1111109  0.1396055  )
         4           Ag  tau(   4) = (  0.1111109  0.5555554  0.2792114  )
         5           Ag  tau(   5) = ( -0.0000000  0.3333332  0.0000000  )
         6           Ag  tau(   6) = (  0.2222222  0.4444441  0.1396055  )
         7           Ag  tau(   7) = (  0.1111109  0.8888886  0.2792114  )
         8           Ag  tau(   8) = ( -0.0000000  0.6666664  0.0000000  )
         9           Ag  tau(   9) = (  0.2222222  0.7777773  0.1396055  )
        10           Ag  tau(  10) = (  0.4444441  0.2222222  0.2792114  )
        11           Ag  tau(  11) = (  0.3333332  0.0000000  0.0000000  )
        12           Ag  tau(  12) = (  0.5555554  0.1111109  0.1396055  )
        13           Ag  tau(  13) = (  0.4444441  0.5555554  0.2792114  )
        14           Ag  tau(  14) = (  0.3333332  0.3333332  0.0000000  )
        15           Ag  tau(  15) = (  0.5555554  0.4444441  0.1396055  )
        16           Ag  tau(  16) = (  0.4444441  0.8888886  0.2792114  )
        17           Ag  tau(  17) = (  0.3333332  0.6666664  0.0000000  )
        18           Ag  tau(  18) = (  0.5555554  0.7777773  0.1396055  )
        19           Ag  tau(  19) = (  0.7777773  0.2222222  0.2792114  )
        20           Ag  tau(  20) = (  0.6666664  0.0000000  0.0000000  )
        21           Ag  tau(  21) = (  0.8888886  0.1111109  0.1396055  )
        22           Ag  tau(  22) = (  0.7777773  0.5555554  0.2792114  )
        23           Ag  tau(  23) = (  0.6666664  0.3333332  0.0000000  )
        24           Ag  tau(  24) = (  0.8888886  0.4444441  0.1396055  )
        25           Ag  tau(  25) = (  0.7777773  0.8888886  0.2792114  )
        26           Ag  tau(  26) = (  0.6666664  0.6666664  0.0000000  )
        27           Ag  tau(  27) = (  0.8888886  0.7777773  0.1396055  )

     number of k points=     4  Gaussian smearing, width (Ry)=  0.0030
                       cart. coord. in units 2pi/alat
        k(    1) = (   0.0000000   0.0000000   0.0000000), wk =   0.1250000
        k(    2) = (   0.0000000   0.2886751   0.0000000), wk =   0.7500000
        k(    3) = (   0.0000000  -0.5773503   0.0000000), wk =   0.3750000
        k(    4) = (   0.2500000   0.4330127   0.0000000), wk =   0.7500000

                       cryst. coord.
        k(    1) = (   0.0000000   0.0000000   0.0000000), wk =   0.1250000
        k(    2) = (   0.0000000   0.2500000   0.0000000), wk =   0.7500000
        k(    3) = (   0.0000000  -0.5000000   0.0000000), wk =   0.3750000
        k(    4) = (   0.2500000   0.2500000   0.0000000), wk =   0.7500000

     Initial potential from superposition of free atoms

     starting charge  499.49872, renormalised to  513.00000

     negative rho (up, down):  6.378E-03 0.000E+00
     Starting wfcs are  351 randomized atomic wfcs

     Self-consistent Calculation

     iteration #  1     ecut=    30.00 Ry     beta= 0.30
     Davidson diagonalization with overlap
     ethr =  1.00E-02,  avg # of iterations =  6.2

     negative rho (up, down):  2.096E-04 0.000E+00

     total energy              =   -7972.24604940 Ry
     estimated scf accuracy    <      42.14072588 Ry

[...]

     End of self-consistent calculation

          k = 0.0000 0.0000 0.0000 ( 21795 PWs)   bands (ev):

   -87.6517 -87.6451 -87.6451 -87.6451 -87.6450 -87.6450 -87.6449 -87.6417
   -87.6417 -87.4276 -87.4276 -87.4212 -87.4211 -87.4211 -87.4211 -87.4211
   -87.4211 -87.4211 -87.4210 -87.4210 -87.4210 -87.4210 -87.4209 -87.4178
   -87.4178 -87.4177 -87.4177 -51.1414 -51.1414 -51.1414 -51.1413 -51.1413
   -51.1413 -51.1367 -51.1367 -51.1367 -51.1367 -51.1274 -51.1152 -51.1152
   -51.1152 -51.1151 -51.1151 -51.1150 -51.1093 -51.1093 -51.0851 -51.0850
   -51.0850 -51.0850 -51.0849 -51.0849 -51.0664 -51.0664 -50.9184 -50.9184
   -50.9184 -50.9183 -50.9183 -50.9183 -50.9158 -50.9158 -50.9158 -50.9157
   -50.9157 -50.9157 -50.9141 -50.9141 -50.9135 -50.9135 -50.9134 -50.9134
   -50.9104 -50.9104 -50.8862 -50.8785 -50.8769 -50.8769 -50.8769 -50.8769
   -50.8769 -50.8768 -50.8746 -50.8746 -50.8746 -50.8746 -50.8746 -50.8745
   -50.8729 -50.8729 -50.8728 -50.8728 -50.8636 -50.8636 -50.8636 -50.8635
   -50.8635 -50.8635 -50.8631 -50.8631 -50.8631 -50.8630 -50.8630 -50.8630
   -50.8452 -50.8452 -50.8450 -50.8450  -2.5779  -1.6450  -1.5239  -1.4542
    -1.4542  -1.4542  -1.4542  -1.4542  -1.4542  -1.2720  -1.2719  -1.2719
[...]
     atom   11 type  1   force =     0.00000564    0.00001682   -0.16010874
     atom   12 type  1   force =     0.00000000    0.00001757   -0.00005566
     atom   13 type  1   force =     0.00001791   -0.00001034    0.16016862
     atom   14 type  1   force =     0.00001739   -0.00000352   -0.16010874
     atom   15 type  1   force =     0.00001522   -0.00000879   -0.00005566
     atom   16 type  1   force =     0.00000000    0.00002068    0.16016862
     atom   17 type  1   force =     0.00000000    0.00000000   -0.16010891
     atom   18 type  1   force =     0.00000691    0.00000399   -0.00005867
     atom   19 type  1   force =    -0.00001278    0.00000738    0.16017966
     atom   20 type  1   force =    -0.00000564    0.00001682   -0.16010874
     atom   21 type  1   force =    -0.00000809    0.00000467   -0.00005586
     atom   22 type  1   force =     0.00000000   -0.00001476    0.16017966
     atom   23 type  1   force =     0.00000000   -0.00000000   -0.16011823
     atom   24 type  1   force =    -0.00001522   -0.00000879   -0.00005566
     atom   25 type  1   force =     0.00000712    0.00000411    0.16016086
     atom   26 type  1   force =     0.00001175   -0.00001330   -0.16010874
     atom   27 type  1   force =     0.00000000   -0.00000934   -0.00005586
     The ionic contribution  to forces
     atom    1 type  1   force =    -0.00009299   -0.00181646  197.93879471
     atom    2 type  1   force =    -0.00007315   -0.00014645 -197.93430201
     atom    3 type  1   force =     0.00069627    0.00027879   -0.00523669
     atom    4 type  1   force =    -0.00310858   -0.00178135  197.93966166
     atom    5 type  1   force =    -0.00228844   -0.00157758 -197.93391414
     atom    6 type  1   force =    -0.00012338   -0.00270085   -0.00484428
     atom    7 type  1   force =    -0.00151908    0.00087189  197.93874753
     atom    8 type  1   force =    -0.00251130   -0.00106482 -197.93390677
     atom    9 type  1   force =    -0.00241705    0.00140354   -0.00488483
     atom   10 type  1   force =     0.00177475    0.00089496  197.93820160
     atom   11 type  1   force =    -0.00023312    0.00255292 -197.93390677
     atom   12 type  1   force =     0.00002517    0.00356150   -0.00468837
     atom   13 type  1   force =     0.00300685   -0.00172997  197.93971380
     atom   14 type  1   force =     0.00219319   -0.00155804 -197.93396131
     atom   15 type  1   force =     0.00320600   -0.00181621   -0.00472894
     atom   16 type  1   force =    -0.00000640    0.00358068  197.93965924
     atom   17 type  1   force =    -0.00002444    0.00010639 -197.93476914
     atom   18 type  1   force =     0.00230980    0.00148135   -0.00490377
     atom   19 type  1   force =    -0.00165544    0.00095489  197.93818551
     atom   20 type  1   force =     0.00032237    0.00261629 -197.93391414
     atom   21 type  1   force =    -0.00072881    0.00038204   -0.00524614
     atom   22 type  1   force =     0.00011154   -0.00197885  197.93819288
     atom   23 type  1   force =     0.00010184    0.00003348 -197.93272521
     atom   24 type  1   force =    -0.00309902   -0.00179077   -0.00471946
     atom   25 type  1   force =     0.00152579    0.00098321  197.93878358
     atom   26 type  1   force =     0.00252581   -0.00098191 -197.93396131
     atom   27 type  1   force =     0.00008180   -0.00075869   -0.00532726
     The local contribution  to forces
     atom    1 type  1   force =     0.00056526    0.00236655 -198.09783305
     atom    2 type  1   force =     0.00000000   -0.00000000  198.09336047
     atom    3 type  1   force =    -0.00046411    0.00038157    0.00531713
     atom    4 type  1   force =     0.00364484    0.00233909 -198.09874512
     atom    5 type  1   force =     0.00178477    0.00226173  198.09300018
     atom    6 type  1   force =    -0.00056251    0.00396341    0.00492752
     atom    7 type  1   force =     0.00212884   -0.00034162 -198.09783305
     atom    8 type  1   force =     0.00208256    0.00174597  198.09300018
     atom    9 type  1   force =     0.00182385   -0.00016988    0.00492753
     atom   10 type  1   force =    -0.00036347   -0.00086255 -198.09727566
     atom   11 type  1   force =     0.00106633   -0.00267652  198.09300018
     atom   12 type  1   force =     0.00020229   -0.00284712    0.00475998
     atom   13 type  1   force =    -0.00251431    0.00233909 -198.09874512
     atom   14 type  1   force =    -0.00178477    0.00226173  198.09300018
     atom   15 type  1   force =    -0.00292704    0.00257304    0.00475998
     atom   16 type  1   force =     0.00056526   -0.00299488 -198.09874512
     atom   17 type  1   force =     0.00000000    0.00088745  198.09384033
     atom   18 type  1   force =    -0.00294887   -0.00016988    0.00492752
     atom   19 type  1   force =     0.00303109   -0.00086255 -198.09727566
     atom   20 type  1   force =     0.00047077   -0.00267653  198.09300018
     atom   21 type  1   force =     0.00086869    0.00038157    0.00531713
     atom   22 type  1   force =     0.00133381    0.00207723 -198.09727566
     atom   23 type  1   force =     0.00076855    0.00044373  198.09181410
     atom   24 type  1   force =     0.00333162    0.00257304    0.00475998
     atom   25 type  1   force =    -0.00099831   -0.00034162 -198.09783305
     atom   26 type  1   force =    -0.00208256    0.00174597  198.09300018
     atom   27 type  1   force =     0.00020229    0.00153582    0.00531713
     The core correction contribution to forces
     atom    1 type  1   force =     0.00000037    0.00000038   -0.00115768
     atom    2 type  1   force =    -0.00000000   -0.00000000    0.00115692
     atom    3 type  1   force =     0.00000007    0.00000047    0.00000329
     atom    4 type  1   force =     0.00000047    0.00000043   -0.00115771
     atom    5 type  1   force =    -0.00000015    0.00000043    0.00115694
     atom    6 type  1   force =    -0.00000038    0.00000083    0.00000331
     atom    7 type  1   force =     0.00000038    0.00000036   -0.00115768
     atom    8 type  1   force =    -0.00000020    0.00000053    0.00115694
     atom    9 type  1   force =    -0.00000035    0.00000079    0.00000331
     atom   10 type  1   force =     0.00000078    0.00000002   -0.00115773
     atom   11 type  1   force =     0.00000045   -0.00000009    0.00115694
     atom   12 type  1   force =     0.00000013    0.00000041    0.00000329
     atom   13 type  1   force =     0.00000027    0.00000043   -0.00115771
     atom   14 type  1   force =     0.00000015    0.00000043    0.00115694
     atom   15 type  1   force =     0.00000004    0.00000056    0.00000329
     atom   16 type  1   force =     0.00000037    0.00000025   -0.00115771
     atom   17 type  1   force =    -0.00000000    0.00000058    0.00115697
     atom   18 type  1   force =    -0.00000040    0.00000079    0.00000331
     atom   19 type  1   force =     0.00000098    0.00000002   -0.00115773
     atom   20 type  1   force =     0.00000056   -0.00000009    0.00115694
     atom   21 type  1   force =     0.00000020    0.00000047    0.00000329
     atom   22 type  1   force =     0.00000088    0.00000019   -0.00115773
     atom   23 type  1   force =     0.00000051    0.00000029    0.00115694
     atom   24 type  1   force =     0.00000023    0.00000056    0.00000329
     atom   25 type  1   force =     0.00000036    0.00000036   -0.00115768
     atom   26 type  1   force =     0.00000020    0.00000053    0.00115694
     atom   27 type  1   force =     0.00000013    0.00000058    0.00000329
     The Hubbard contrib.    to forces
     atom    1 type  1   force =     0.00000000    0.00000000    0.00000000
     atom    2 type  1   force =     0.00000000    0.00000000    0.00000000
     atom    3 type  1   force =     0.00000000    0.00000000    0.00000000
     atom    4 type  1   force =     0.00000000    0.00000000    0.00000000
     atom    5 type  1   force =     0.00000000    0.00000000    0.00000000
     atom    6 type  1   force =     0.00000000    0.00000000    0.00000000
     atom    7 type  1   force =     0.00000000    0.00000000    0.00000000
     atom    8 type  1   force =     0.00000000    0.00000000    0.00000000
     atom    9 type  1   force =     0.00000000    0.00000000    0.00000000
     atom   10 type  1   force =     0.00000000    0.00000000    0.00000000
     atom   11 type  1   force =     0.00000000    0.00000000    0.00000000
     atom   12 type  1   force =     0.00000000    0.00000000    0.00000000
     atom   13 type  1   force =     0.00000000    0.00000000    0.00000000
     atom   14 type  1   force =     0.00000000    0.00000000    0.00000000
     atom   15 type  1   force =     0.00000000    0.00000000    0.00000000
     atom   16 type  1   force =     0.00000000    0.00000000    0.00000000
     atom   17 type  1   force =     0.00000000    0.00000000    0.00000000
     atom   18 type  1   force =     0.00000000    0.00000000    0.00000000
     atom   19 type  1   force =     0.00000000    0.00000000    0.00000000
     atom   20 type  1   force =     0.00000000    0.00000000    0.00000000
     atom   21 type  1   force =     0.00000000    0.00000000    0.00000000
     atom   22 type  1   force =     0.00000000    0.00000000    0.00000000
     atom   23 type  1   force =     0.00000000    0.00000000    0.00000000
     atom   24 type  1   force =     0.00000000    0.00000000    0.00000000
     atom   25 type  1   force =     0.00000000    0.00000000    0.00000000
     atom   26 type  1   force =     0.00000000    0.00000000    0.00000000
     atom   27 type  1   force =     0.00000000    0.00000000    0.00000000
     The SCF correction term to forces
     atom    1 type  1   force =     0.00000000   -0.00000895    0.00004745
     atom    2 type  1   force =    -0.00000000   -0.00000000   -0.00007476
     atom    3 type  1   force =    -0.00001307   -0.00000754   -0.00003786
     atom    4 type  1   force =     0.00000181    0.00000104    0.00005123
     atom    5 type  1   force =     0.00000722   -0.00000751   -0.00007927
     atom    6 type  1   force =     0.00000000   -0.00000887   -0.00003738
     atom    7 type  1   force =    -0.00000775    0.00000448    0.00004745
     atom    8 type  1   force =    -0.00000289    0.00001000   -0.00007927
     atom    9 type  1   force =    -0.00000768    0.00000443   -0.00003737
     atom   10 type  1   force =    -0.00000945   -0.00000546    0.00005191
     atom   11 type  1   force =    -0.00001011   -0.00000250   -0.00007927
     atom   12 type  1   force =     0.00000000   -0.00000617   -0.00003762
     atom   13 type  1   force =    -0.00000181    0.00000104    0.00005122
     atom   14 type  1   force =    -0.00000722   -0.00000751   -0.00007926
     atom   15 type  1   force =    -0.00000534    0.00000308   -0.00003761
     atom   16 type  1   force =     0.00000000   -0.00000209    0.00005123
     atom   17 type  1   force =     0.00000000   -0.00000000   -0.00008036
     atom   18 type  1   force =     0.00000768    0.00000443   -0.00003737
     atom   19 type  1   force =     0.00000945   -0.00000546    0.00005192
     atom   20 type  1   force =     0.00001011   -0.00000250   -0.00007927
     atom   21 type  1   force =     0.00001307   -0.00000754   -0.00003786
     atom   22 type  1   force =    -0.00000000    0.00001092    0.00005191
     atom   23 type  1   force =    -0.00000000    0.00000000   -0.00008258
     atom   24 type  1   force =     0.00000534    0.00000308   -0.00003761
     atom   25 type  1   force =     0.00000775    0.00000448    0.00004745
     atom   26 type  1   force =     0.00000289    0.00001000   -0.00007927
     atom   27 type  1   force =     0.00000000    0.00001509   -0.00003785

     Total force =     0.000182     Total SCF correction =     0.000307
     SCF correction compared to forces is large: reduce conv_thr to get better values

     Computing stress (Cartesian axis) and pressure

     negative rho (up, down):  5.844E-03 0.000E+00
          total   stress  (Ry/bohr**3)                   (kbar)     P=      -46.73
  -0.00033627   0.00000000   0.00000000          -49.47        0.00        0.00
   0.00000000  -0.00033627   0.00000000            0.00      -49.47        0.00
   0.00000000   0.00000000  -0.00028050            0.00        0.00      -41.26

     kinetic stress (kbar)  22651.54      0.00      0.00
                                0.00  22651.54      0.00
                                0.00      0.00  22714.57

     local   stress (kbar)-508741.64     -0.00     -0.00
                               -0.00-508741.64      0.00
                               -0.00      0.00 512507.36

     nonloc. stress (kbar)   2661.77     -0.00      0.00
                                0.00   2661.77      0.00
                                0.00      0.00   2636.12

     hartree stress (kbar) 263943.56     -0.00     -0.00
                               -0.00 263943.56      0.00
                               -0.00      0.00-238517.74

     exc-cor stress (kbar)  -4083.99     -0.00     -0.00
                               -0.00  -4083.99      0.00
                               -0.00      0.00  -4090.50

     corecor stress (kbar)   -552.73     -0.00      0.00
                               -0.00   -552.73     -0.00
                                0.00     -0.00   -552.64

     ewald   stress (kbar) 224072.03      0.00      0.00
                                0.00 224072.03     -0.00
                                0.00     -0.00-294738.45

     hubbard stress (kbar)      0.00      0.00      0.00
                                0.00      0.00      0.00
                                0.00      0.00      0.00

     DFT-D   stress (kbar)      0.00      0.00      0.00
                                0.00      0.00      0.00
                                0.00      0.00      0.00

     XDM     stress (kbar)      0.00      0.00      0.00
                                0.00      0.00      0.00
                                0.00      0.00      0.00

     dft-nl  stress (kbar)      0.00      0.00      0.00
                                0.00      0.00      0.00
                                0.00      0.00      0.00

     TS-vdW  stress (kbar)      0.00      0.00      0.00
                                0.00      0.00      0.00
                                0.00      0.00      0.00

     Energy error            =      4.4E-06
     Gradient error          =      4.8E-05

     bfgs converged in   8 scf cycles and   7 bfgs steps
     (criteria: energy <  1.0E-04 Ry, force <  1.0E-03 Ry/Bohr)

     End of BFGS Geometry Optimization

     Final energy   =   -7981.1180895248 Ry

     File ./surface.bfgs deleted, as requested
Begin final coordinates

ATOMIC_POSITIONS (angstrom)
Ag           -0.0000014710        1.6985552964        4.7633602903
Ag           -0.0000000000       -0.0000000000        0.0407177241
Ag            1.4709695628        0.8492629745        2.4021928529
Ag           -1.4709485385        4.2463595013        4.7633616161
Ag           -1.4709542592        2.5478192216        0.0407245218
Ag            0.0000014710        3.3970933810        2.4021980070
Ag           -2.9419381701        6.7941391318        4.7633602903
Ag           -2.9419289594        5.0956221390        0.0407245218
Ag           -1.4709566265        5.9448675417        2.4021980070
Ag            2.9419337480        1.6985279399        4.7633600626
Ag            2.9419532998       -0.0000258545        0.0407245218
Ag            4.4129294710        0.8492371298        2.4021968698
Ag            1.4709455965        4.2463595013        4.7633616161
Ag            1.4709542592        2.5478192216        0.0407245218
Ag            2.9419271347        3.3970879143        2.4021968698
Ag           -0.0000014710        6.7941145575        4.7633616161
Ag            0.0000000000        5.0956103374        0.0407319543
Ag            1.4709595685        5.9448675417        2.4021980070
Ag            5.8839193100        1.6985279399        4.7633600626
Ag            5.8839027002       -0.0000258545        0.0407245218
Ag            7.3548893792        0.8492629745        2.4021928529
Ag            4.4129265290        4.2463621742        4.7633600626
Ag            4.4129280000        2.5478051687        0.0407230947
Ag            5.8839318073        3.3970879143        2.4021968698
Ag            2.9419352281        6.7941391318        4.7633602903
Ag            2.9419289594        5.0956221390        0.0407245218
Ag            4.4129294710        5.9448870093        2.4021928529
End final coordinates

     Writing output data file ./surface.save/

     General routines

     Parallel routines

   This run was terminated on:  17:57:57   9Dec2021

   JOB DONE.