     Program PWSCF v.6.7MaX starts on  6Dec2021 at 19: 2:59

     R & G space division:  proc/nbgrp/npool/nimage =      64
     Reading input from ag_surface.110.qe.in

     Current dimensions of program PWSCF are:
     Max number of different atomic species (ntypx) = 10
     Max number of k-points (npk) =  40000
     Max angular momentum in pseudopotentials (lmaxx) =  3

     Found symmetry operation: I + (  0.0000  0.3333  0.0000)
     This is a supercell, fractional translations are disabled

     bravais-lattice index     =            8
     lattice parameter (alat)  =      23.5869  a.u.
     unit-cell volume          =    9621.1061 (a.u.)^3
     number of atoms/cell      =           18
     number of atomic types    =            1
     number of electrons       =       342.00
     number of Kohn-Sham states=          205
     kinetic-energy cutoff     =      30.0000  Ry
     charge density cutoff     =     300.0000  Ry
     scf convergence threshold =      1.0E-06
     mixing beta               =       0.3000
     number of iterations used =            8  plain     mixing
     energy convergence thresh.=      1.0E-04
     force convergence thresh. =      1.0E-03
     Exchange-correlation=  SLA  PW   PBX  PBC
                           (   1   4   3   4   0   0   0)
     nstep                     =           50

     celldm(1)=  23.586881  celldm(2)=   0.707107  celldm(3)=   1.036879
     celldm(4)=   0.000000  celldm(5)=   0.000000  celldm(6)=   0.000000

     crystal axes: (cart. coord. in units of alat)
               a(1) = (   1.000000   0.000000   0.000000 )
               a(2) = (   0.000000   0.707107   0.000000 )
               a(3) = (   0.000000   0.000000   1.036879 )

     reciprocal axes: (cart. coord. in units 2 pi/alat)
               b(1) = (  1.000000  0.000000  0.000000 )
               b(2) = (  0.000000  1.414212  0.000000 )
               b(3) = (  0.000000  0.000000  0.964433 )

     PseudoPot. # 1 for Ag read from file:
     /expanse/lustre/projects/csd622/tpascal/nano110/qe/pseudo/ag_pbe_v1.4.uspp.F.UPF
     MD5 check sum: d66d668201baa78d5eb5b04ef7011058
     Pseudo is Ultrasoft + core correction, Zval = 19.0
     Generated by new atomic code, or converted to UPF format
     Using radial grid of  887 points,  6 beta functions with:
                l(1) =   0
                l(2) =   0
                l(3) =   1
                l(4) =   1
                l(5) =   2
                l(6) =   2
     Q(r) pseudized with  6 coefficients,  rinner =    1.300   1.300   1.300
                                                       1.300   1.300

     atomic species   valence    mass     pseudopotential
        Ag            19.00   107.86820     Ag( 1.00)

      4 Sym. Ops. (no inversion) found

                                    s                        frac. trans.

      isym =  1     identity

 cryst.   s( 1) = (     1          0          0      )
                  (     0          1          0      )
                  (     0          0          1      )

 cart.    s( 1) = (  1.0000000  0.0000000  0.0000000 )
                  (  0.0000000  1.0000000  0.0000000 )
                  (  0.0000000  0.0000000  1.0000000 )

      isym =  2     180 deg rotation - cart. axis [0,0,1]

[...]

      isym =  3     inv. 180 deg rotation - cart. axis [0,1,0]

[...]

      isym =  4     inv. 180 deg rotation - cart. axis [1,0,0]

 cryst.   s( 4) = (    -1          0          0      )
                  (     0          1          0      )
                  (     0          0          1      )

 cart.    s( 4) = ( -1.0000000  0.0000000  0.0000000 )
                  (  0.0000000  1.0000000  0.0000000 )
                  (  0.0000000  0.0000000  1.0000000 )

     point group C_2v (mm2)
     there are  4 classes
     the character table:

       E     C2    s_v   s_v'
A_1    1.00  1.00  1.00  1.00
A_2    1.00  1.00 -1.00 -1.00
B_1    1.00 -1.00  1.00 -1.00
B_2    1.00 -1.00 -1.00  1.00

     the symmetry operations in each class and the name of the first element:

     E        1
          identity
     C2       2
          180 deg rotation - cart. axis [0,0,1]
     s_v      4
          inv. 180 deg rotation - cart. axis [1,0,0]
     s_v'     3
          inv. 180 deg rotation - cart. axis [0,1,0]

   Cartesian axes

     site n.     atom                  positions (alat units)
         1           Ag  tau(   1) = (   0.0000000   0.0000000   0.0000000  )
         2           Ag  tau(   2) = (   0.1666667   0.1178512   0.1178512  )
         3           Ag  tau(   3) = (   0.0000000   0.2357024   0.0000000  )
         4           Ag  tau(   4) = (   0.1666667   0.3535535   0.1178512  )
         5           Ag  tau(   5) = (   0.0000000   0.4714047   0.0000000  )
         6           Ag  tau(   6) = (   0.1666667   0.5892559   0.1178512  )
         7           Ag  tau(   7) = (   0.3333334   0.0000000   0.0000000  )
         8           Ag  tau(   8) = (   0.5000002   0.1178512   0.1178512  )
         9           Ag  tau(   9) = (   0.3333334   0.2357024   0.0000000  )
        10           Ag  tau(  10) = (   0.5000002   0.3535535   0.1178512  )
        11           Ag  tau(  11) = (   0.3333334   0.4714047   0.0000000  )
        12           Ag  tau(  12) = (   0.5000002   0.5892559   0.1178512  )
        13           Ag  tau(  13) = (   0.6666669   0.0000000   0.0000000  )
        14           Ag  tau(  14) = (   0.8333336   0.1178512   0.1178512  )
        15           Ag  tau(  15) = (   0.6666669   0.2357024   0.0000000  )
        16           Ag  tau(  16) = (   0.8333336   0.3535535   0.1178512  )
        17           Ag  tau(  17) = (   0.6666669   0.4714047   0.0000000  )
        18           Ag  tau(  18) = (   0.8333336   0.5892559   0.1178512  )

   Crystallographic axes

     site n.     atom                  positions (cryst. coord.)
         1           Ag  tau(   1) = (  0.0000000  0.0000000  0.0000000  )
         2           Ag  tau(   2) = (  0.1666667  0.1666666  0.1136595  )
         3           Ag  tau(   3) = (  0.0000000  0.3333332  0.0000000  )
         4           Ag  tau(   4) = (  0.1666667  0.4999998  0.1136595  )
         5           Ag  tau(   5) = (  0.0000000  0.6666664  0.0000000  )
         6           Ag  tau(   6) = (  0.1666667  0.8333330  0.1136595  )
         7           Ag  tau(   7) = (  0.3333334  0.0000000  0.0000000  )
         8           Ag  tau(   8) = (  0.5000002  0.1666666  0.1136595  )
         9           Ag  tau(   9) = (  0.3333334  0.3333332  0.0000000  )
        10           Ag  tau(  10) = (  0.5000002  0.4999998  0.1136595  )
        11           Ag  tau(  11) = (  0.3333334  0.6666664  0.0000000  )
        12           Ag  tau(  12) = (  0.5000002  0.8333330  0.1136595  )
        13           Ag  tau(  13) = (  0.6666669  0.0000000  0.0000000  )
        14           Ag  tau(  14) = (  0.8333336  0.1666666  0.1136595  )
        15           Ag  tau(  15) = (  0.6666669  0.3333332  0.0000000  )
        16           Ag  tau(  16) = (  0.8333336  0.4999998  0.1136595  )
        17           Ag  tau(  17) = (  0.6666669  0.6666664  0.0000000  )
        18           Ag  tau(  18) = (  0.8333336  0.8333330  0.1136595  )

     number of k points=     9  Gaussian smearing, width (Ry)=  0.0030
                       cart. coord. in units 2pi/alat
        k(    1) = (   0.0000000   0.0000000   0.0000000), wk =   0.1250000
        k(    2) = (   0.0000000   0.3535531   0.0000000), wk =   0.2500000
        k(    3) = (   0.0000000  -0.7071062   0.0000000), wk =   0.1250000
        k(    4) = (   0.2500000   0.0000000   0.0000000), wk =   0.2500000
        k(    5) = (   0.2500000   0.3535531   0.0000000), wk =   0.5000000
        k(    6) = (   0.2500000  -0.7071062   0.0000000), wk =   0.2500000
        k(    7) = (  -0.5000000   0.0000000   0.0000000), wk =   0.1250000
        k(    8) = (  -0.5000000   0.3535531   0.0000000), wk =   0.2500000
        k(    9) = (  -0.5000000  -0.7071062   0.0000000), wk =   0.1250000

                       cryst. coord.
        k(    1) = (   0.0000000   0.0000000   0.0000000), wk =   0.1250000
        k(    2) = (   0.0000000   0.2500000   0.0000000), wk =   0.2500000
        k(    3) = (   0.0000000  -0.5000000   0.0000000), wk =   0.1250000
        k(    4) = (   0.2500000   0.0000000   0.0000000), wk =   0.2500000
        k(    5) = (   0.2500000   0.2500000   0.0000000), wk =   0.5000000
        k(    6) = (   0.2500000  -0.5000000   0.0000000), wk =   0.2500000
        k(    7) = (  -0.5000000   0.0000000   0.0000000), wk =   0.1250000
        k(    8) = (  -0.5000000   0.2500000   0.0000000), wk =   0.2500000
        k(    9) = (  -0.5000000  -0.5000000   0.0000000), wk =   0.1250000

     Initial potential from superposition of free atoms

     starting charge  332.99915, renormalised to  342.00000

     negative rho (up, down):  7.036E-03 0.000E+00
     Starting wfcs are  234 randomized atomic wfcs

     Self-consistent Calculation

     iteration #  1     ecut=    30.00 Ry     beta= 0.30
     Davidson diagonalization with overlap
     ethr =  1.00E-02,  avg # of iterations =  7.1

     negative rho (up, down):  1.418E-03 0.000E+00

     total energy              =   -5312.65725393 Ry
     estimated scf accuracy    <      31.76676397 Ry

[...]

     End of self-consistent calculation

          k = 0.0000 0.0000 0.0000 ( 26735 PWs)   bands (ev):

   -90.8422 -90.8401 -90.8400 -90.8367 -90.8367 -90.8357 -90.8357 -90.8356
   -90.8356 -90.8356 -90.8356 -90.8335 -90.8335 -90.8335 -90.8334 -90.8334
   -90.8324 -90.8324 -54.3558 -54.3558 -54.3558 -54.3558 -54.3556 -54.3556
   -54.3511 -54.3511 -54.3511 -54.3511 -54.3453 -54.3453 -54.3286 -54.3280
   -54.3280 -54.3209 -54.3209 -54.3143 -54.3088 -54.3088 -54.3074 -54.3072
   -54.3072 -54.3072 -54.3072 -54.3014 -54.3014 -54.3014 -54.3014 -54.3005
   -54.3005 -54.2981 -54.2981 -54.2892 -54.2892 -54.2892 -54.2879 -54.2879
   -54.2826 -54.2809 -54.2809 -54.2809 -54.2809 -54.2801 -54.2800 -54.2777
   -54.2777 -54.2769 -54.2769 -54.2769 -54.2769 -54.2696 -54.2696 -54.2673
    -4.5410  -4.4788  -4.4788  -4.4727  -4.3507  -4.3507  -4.0228  -4.0227
    -3.9594  -3.9594  -3.9453  -3.9453  -3.9338  -3.9338  -3.9338  -3.9338
    -3.8931  -3.8931  -3.8524  -3.8524  -3.8524  -3.8524  -3.7904  -3.7515
    -3.7515  -3.7515  -3.7515  -3.7036  -3.7036  -3.7016  -3.7016  -3.7015
    -3.7015  -3.6390  -3.3364  -3.3069  -3.3069  -3.3069  -3.3069  -3.2730
    -3.2730  -3.1942  -3.1942  -3.1831  -3.1831  -3.1168  -3.1168  -3.0958
    -2.9708  -2.9708  -2.9174  -2.9174  -2.8928  -2.8928  -2.8927  -2.8927
    -2.8917  -2.8917  -2.8917  -2.8917  -2.8210  -2.7616  -2.7616  -2.7616
    -2.7616  -2.7453  -2.7141  -2.7141  -2.6983  -2.6983  -2.5729  -2.5496
    -2.5496  -2.5496  -2.5496  -2.4798  -2.4696  -2.4696  -2.4678  -2.4678
    -2.4678  -2.4678  -2.4406  -2.4406  -2.3627  -2.3627  -2.3301  -2.3301
    -2.2379  -2.2379  -2.1864  -2.1864  -2.1720  -1.4913  -1.4912  -0.2919
    -0.2918  -0.2918  -0.2918   0.2920   0.7155   0.7155   1.6539   1.6539
     2.4118   2.4118   2.5519   2.5519   2.5519   2.5519   3.2097   3.6639
[...]
     1.0000   1.0000   1.0000   1.0000   1.0000   1.0000   1.0000   1.0000
     1.0000   1.0000   1.0000   1.0000   1.0000   1.0000   1.0000   1.0000
     1.0000   1.0000   1.0000   1.0000   1.0000   1.0000   1.0000   1.0000
     1.0000   1.0000   1.0000   1.0000   1.0000   1.0000   1.0000   1.0000
     1.0000   1.0000   1.0000   1.0000   1.0000   1.0000   1.0000   1.0000
     1.0000   1.0000   1.0000   1.0000   1.0000   1.0000   1.0000   1.0000
     1.0000   1.0000   1.0000   1.0000   1.0000   1.0000   1.0000   1.0000
     1.0000   1.0000   1.0000   1.0000   1.0000   1.0000   1.0000   1.0000
     1.0000   1.0000   1.0000   1.0000   1.0000   1.0000   1.0000   1.0000
     1.0000   1.0000   1.0000   1.0000   1.0000   1.0000   1.0000   1.0000
     1.0000   1.0000   1.0000   1.0000   1.0000   1.0000   1.0000   1.0000
     1.0000   1.0000   1.0000   1.0000   1.0000   1.0000   1.0000   1.0000
     1.0000   1.0000   1.0000   1.0000   1.0000   1.0000   1.0000   1.0000
     1.0000   1.0000   1.0000   1.0000   1.0000   1.0000   1.0000   1.0000
     1.0000   1.0000   1.0000   1.0000   1.0000   1.0000   1.0000   1.0000
     1.0000   1.0000   1.0000   1.0000   1.0000   1.0000   1.0000   1.0000
     1.0000   1.0000   1.0000   1.0000   1.0000   1.0000   1.0000   1.0000
     1.0000   1.0000   1.0000   1.0000   1.0000   1.0000   1.0000   1.0000
     1.0000   1.0000   1.0000   1.0000   1.0000   1.0000   1.0000   1.0000
     1.0000   1.0000   0.0000   0.0000   0.0000   0.0000   0.0000   0.0000
     0.0000   0.0000   0.0000   0.0000   0.0000   0.0000   0.0000   0.0000
     0.0000   0.0000   0.0000   0.0000   0.0000   0.0000   0.0000   0.0000
     0.0000   0.0000   0.0000   0.0000   0.0000   0.0000   0.0000   0.0000
     0.0000   0.0000   0.0000   0.0000   0.0000

     the Fermi energy is     0.7180 ev

!    total energy              =   -5320.28502571 Ry
     estimated scf accuracy    <          2.5E-09 Ry
     smearing contrib. (-TS)   =      -0.00024613 Ry
     internal energy E=F+TS    =   -5320.28477957 Ry

     The total energy is F=E-TS. E is the sum of the following terms:
     one-electron contribution =  -13085.59314646 Ry
     hartree contribution      =    6512.39115295 Ry
     xc contribution           =    -520.90802982 Ry
     ewald contribution        =    1773.82524375 Ry

     convergence has been achieved in   6 iterations

     negative rho (up, down):  7.838E-03 0.000E+00

     Forces acting on atoms (cartesian axes, Ry/au):

     atom    1 type  1   force =     0.00000000    0.00000000   -0.00015948
     atom    2 type  1   force =     0.00004819   -0.00000056    0.00013974
     atom    3 type  1   force =     0.00000000   -0.00000087   -0.00015981
     atom    4 type  1   force =     0.00004912    0.00000000    0.00013988
     atom    5 type  1   force =     0.00000000    0.00000087   -0.00015981
     atom    6 type  1   force =     0.00004819    0.00000056    0.00013974
     atom    7 type  1   force =     0.00004095    0.00000000   -0.00010355
     atom    8 type  1   force =     0.00000000    0.00000021    0.00008736
     atom    9 type  1   force =     0.00004160    0.00000018   -0.00010361
     atom   10 type  1   force =     0.00000000    0.00000000    0.00008719
     atom   11 type  1   force =     0.00004160   -0.00000018   -0.00010361
     atom   12 type  1   force =     0.00000000   -0.00000021    0.00008736
     atom   13 type  1   force =    -0.00004095    0.00000000   -0.00010355
     atom   14 type  1   force =    -0.00004819   -0.00000056    0.00013974
     atom   15 type  1   force =    -0.00004160    0.00000018   -0.00010361
     atom   16 type  1   force =    -0.00004912    0.00000000    0.00013988
     atom   17 type  1   force =    -0.00004160   -0.00000018   -0.00010361
     atom   18 type  1   force =    -0.00004819    0.00000056    0.00013974
     The non-local contrib.  to forces
     atom    1 type  1   force =     0.00000000    0.00000000   -0.29044050
     atom    2 type  1   force =    -0.00001317   -0.00000102    0.29041067
     atom    3 type  1   force =     0.00000000   -0.00000132   -0.29044156
     atom    4 type  1   force =    -0.00001230    0.00000000    0.29041224
     atom    5 type  1   force =     0.00000000    0.00000132   -0.29044156
     atom    6 type  1   force =    -0.00001317    0.00000102    0.29041067
     atom    7 type  1   force =    -0.00001431    0.00000000   -0.29032862
     atom    8 type  1   force =     0.00000000    0.00000048    0.29030837
     atom    9 type  1   force =    -0.00001363    0.00000067   -0.29032889
     atom   10 type  1   force =     0.00000000    0.00000000    0.29030919
     atom   11 type  1   force =    -0.00001363   -0.00000067   -0.29032889
     atom   12 type  1   force =     0.00000000   -0.00000048    0.29030837
     atom   13 type  1   force =     0.00001431    0.00000000   -0.29032862
     atom   14 type  1   force =     0.00001317   -0.00000102    0.29041067
     atom   15 type  1   force =     0.00001363    0.00000067   -0.29032889
     atom   16 type  1   force =     0.00001230    0.00000000    0.29041224
     atom   17 type  1   force =     0.00001363   -0.00000067   -0.29032889
     atom   18 type  1   force =     0.00001317    0.00000102    0.29041067
     The ionic contribution  to forces
     atom    1 type  1   force =     0.00012490   -0.00010216  -46.07950256
     atom    2 type  1   force =     0.01777720   -0.00020836   46.07029143
     atom    3 type  1   force =     0.00012490   -0.00024463  -46.07970455
     atom    4 type  1   force =     0.01796660    0.00002108   46.07064059
     atom    5 type  1   force =     0.00012490    0.00032601  -46.07970455
     atom    6 type  1   force =     0.01777719    0.00020805   46.07024658
     atom    7 type  1   force =     0.01658695   -0.00010214  -46.05559427
     atom    8 type  1   force =    -0.00001670    0.00002749   46.04988976
     atom    9 type  1   force =     0.01673381    0.00004787  -46.05556129
     atom   10 type  1   force =    -0.00001670    0.00002108   46.05005225
     atom   11 type  1   force =     0.01673380    0.00003351  -46.05556129
     atom   12 type  1   force =    -0.00001670   -0.00002780   46.04984494
     atom   13 type  1   force =    -0.01663392   -0.00010214  -46.05559426
     atom   14 type  1   force =    -0.01783843   -0.00020836   46.07035849
     atom   15 type  1   force =    -0.01678078    0.00004787  -46.05556128
     atom   16 type  1   force =    -0.01802782    0.00002108   46.07070766
     atom   17 type  1   force =    -0.01678078    0.00003351  -46.05556128
     atom   18 type  1   force =    -0.01783842    0.00020805   46.07031364
     The local contribution  to forces
     atom    1 type  1   force =     0.00000000   -0.00000000   46.36832033
     atom    2 type  1   force =    -0.01855028    0.00097195  -46.35907601
     atom    3 type  1   force =     0.00000000    0.00104898   46.36852303
     atom    4 type  1   force =    -0.01873945    0.00076340  -46.35944901
     atom    5 type  1   force =     0.00000000    0.00047781   46.36852303
     atom    6 type  1   force =    -0.01855028    0.00055486  -46.35907601
     atom    7 type  1   force =    -0.01736234   -0.00000000   46.34433943
     atom    8 type  1   force =    -0.00076806    0.00073561  -46.33857751
     atom    9 type  1   force =    -0.01750908    0.00075578   46.34430666
     atom   10 type  1   force =    -0.00076806    0.00076341  -46.33876342
     atom   11 type  1   force =    -0.01750908    0.00077104   46.34430666
     atom   12 type  1   force =    -0.00076806    0.00079122  -46.33857751
     atom   13 type  1   force =     0.01582622   -0.00000000   46.34433945
     atom   14 type  1   force =     0.01701414    0.00097195  -46.35907603
     atom   15 type  1   force =     0.01597296    0.00075578   46.34430668
     atom   16 type  1   force =     0.01720331    0.00076340  -46.35944903
     atom   17 type  1   force =     0.01597296    0.00077105   46.34430668
     atom   18 type  1   force =     0.01701414    0.00055486  -46.35907603
     The core correction contribution to forces
     atom    1 type  1   force =    -0.00000000   -0.00000000    0.00151622
     atom    2 type  1   force =    -0.00000036    0.00000051   -0.00152196
     atom    3 type  1   force =    -0.00000000    0.00000051    0.00151623
     atom    4 type  1   force =    -0.00000037    0.00000051   -0.00152198
     atom    5 type  1   force =     0.00000000    0.00000050    0.00151623
     atom    6 type  1   force =    -0.00000036    0.00000050   -0.00152196
     atom    7 type  1   force =    -0.00000044   -0.00000000    0.00151548
     atom    8 type  1   force =    -0.00000051    0.00000050   -0.00152128
     atom    9 type  1   force =    -0.00000044    0.00000050    0.00151548
     atom   10 type  1   force =    -0.00000051    0.00000051   -0.00152128
     atom   11 type  1   force =    -0.00000044    0.00000051    0.00151548
     atom   12 type  1   force =    -0.00000051    0.00000051   -0.00152128
     atom   13 type  1   force =    -0.00000057   -0.00000000    0.00151548
     atom   14 type  1   force =    -0.00000065    0.00000051   -0.00152196
     atom   15 type  1   force =    -0.00000057    0.00000050    0.00151548
     atom   16 type  1   force =    -0.00000064    0.00000051   -0.00152198
     atom   17 type  1   force =    -0.00000057    0.00000051    0.00151548
     atom   18 type  1   force =    -0.00000065    0.00000050   -0.00152196
     The Hubbard contrib.    to forces
     atom    1 type  1   force =     0.00000000    0.00000000    0.00000000
     atom    2 type  1   force =     0.00000000    0.00000000    0.00000000
     atom    3 type  1   force =     0.00000000    0.00000000    0.00000000
     atom    4 type  1   force =     0.00000000    0.00000000    0.00000000
     atom    5 type  1   force =     0.00000000    0.00000000    0.00000000
     atom    6 type  1   force =     0.00000000    0.00000000    0.00000000
     atom    7 type  1   force =     0.00000000    0.00000000    0.00000000
     atom    8 type  1   force =     0.00000000    0.00000000    0.00000000
     atom    9 type  1   force =     0.00000000    0.00000000    0.00000000
     atom   10 type  1   force =     0.00000000    0.00000000    0.00000000
     atom   11 type  1   force =     0.00000000    0.00000000    0.00000000
     atom   12 type  1   force =     0.00000000    0.00000000    0.00000000
     atom   13 type  1   force =     0.00000000    0.00000000    0.00000000
     atom   14 type  1   force =     0.00000000    0.00000000    0.00000000
     atom   15 type  1   force =     0.00000000    0.00000000    0.00000000
     atom   16 type  1   force =     0.00000000    0.00000000    0.00000000
     atom   17 type  1   force =     0.00000000    0.00000000    0.00000000
     atom   18 type  1   force =     0.00000000    0.00000000    0.00000000
     The SCF correction term to forces
     atom    1 type  1   force =    -0.00000000    0.00000000   -0.00005275
     atom    2 type  1   force =     0.00003561    0.00000011    0.00002474
     atom    3 type  1   force =    -0.00000000    0.00000018   -0.00005274
     atom    4 type  1   force =     0.00003546    0.00000000    0.00002473
     atom    5 type  1   force =    -0.00000000   -0.00000018   -0.00005274
     atom    6 type  1   force =     0.00003562   -0.00000011    0.00002474
     atom    7 type  1   force =     0.00003904    0.00000000   -0.00003536
     atom    8 type  1   force =    -0.00000000   -0.00000011    0.00001065
     atom    9 type  1   force =     0.00003889   -0.00000003   -0.00003536
     atom   10 type  1   force =    -0.00000000    0.00000000    0.00001066
     atom   11 type  1   force =     0.00003889    0.00000003   -0.00003536
     atom   12 type  1   force =    -0.00000000    0.00000012    0.00001065
     atom   13 type  1   force =    -0.00003905    0.00000000   -0.00003536
     atom   14 type  1   force =    -0.00003562    0.00000011    0.00002474
     atom   15 type  1   force =    -0.00003890   -0.00000003   -0.00003536
     atom   16 type  1   force =    -0.00003546    0.00000000    0.00002473
     atom   17 type  1   force =    -0.00003890    0.00000003   -0.00003536
     atom   18 type  1   force =    -0.00003562   -0.00000011    0.00002474

     Total force =     0.000553     Total SCF correction =     0.000191
     SCF correction compared to forces is large: reduce conv_thr to get better values

     Computing stress (Cartesian axis) and pressure

     negative rho (up, down):  7.838E-03 0.000E+00
          total   stress  (Ry/bohr**3)                   (kbar)     P=      -16.92
  -0.00004941   0.00000000   0.00000000           -7.27        0.00        0.00
   0.00000000  -0.00014272   0.00000000            0.00      -21.00        0.00
   0.00000000   0.00000000  -0.00015285            0.00        0.00      -22.49

     kinetic stress (kbar)  12289.32      0.00      0.00
                                0.00  12279.78      0.00
                                0.00      0.00  12392.57

     local   stress (kbar)-160470.06      0.00      0.01
                                0.00-163271.34     -0.00
                                0.01     -0.00 163290.45

     nonloc. stress (kbar)   1443.76      0.00      0.00
                                0.00   1446.00      0.00
                                0.00      0.00   1407.35

     hartree stress (kbar)  84790.47      0.00     -0.00
                                0.00  86045.92     -0.00
                               -0.00     -0.00 -71263.04

     exc-cor stress (kbar)  -2215.02      0.00      0.00
                                0.00  -2214.38     -0.00
                                0.00     -0.00  -2224.06

     corecor stress (kbar)   -300.05     -0.00     -0.00
                               -0.00   -300.03      0.00
                               -0.00      0.00   -299.90

     ewald   stress (kbar)  64454.31     -0.00     -0.01
                               -0.00  65993.05      0.00
                               -0.01      0.00-103325.87

     hubbard stress (kbar)      0.00      0.00      0.00
                                0.00      0.00      0.00
                                0.00      0.00      0.00

     DFT-D   stress (kbar)      0.00      0.00      0.00
                                0.00      0.00      0.00
                                0.00      0.00      0.00

     XDM     stress (kbar)      0.00      0.00      0.00
                                0.00      0.00      0.00
                                0.00      0.00      0.00

     dft-nl  stress (kbar)      0.00      0.00      0.00
                                0.00      0.00      0.00
                                0.00      0.00      0.00

     TS-vdW  stress (kbar)      0.00      0.00      0.00
                                0.00      0.00      0.00
                                0.00      0.00      0.00

     Energy error            =      4.4E-06
     Gradient error          =      1.6E-04

     bfgs converged in   9 scf cycles and   8 bfgs steps
     (criteria: energy <  1.0E-04 Ry, force <  1.0E-03 Ry/Bohr)

     End of BFGS Geometry Optimization

     Final energy   =   -5320.2850257089 Ry

     File ./surface.bfgs deleted, as requested
Begin final coordinates

ATOMIC_POSITIONS (angstrom)
Ag            0.0000000000        0.0000000000        0.2654115396
Ag            2.0799754559        1.4709771611        1.2054949555
Ag            0.0000000000        2.9419553668        0.2654107104
Ag            2.0799738612        4.4129280000        1.2054991621
Ag            0.0000000000        5.8839006332        0.2654107104
Ag            2.0799754559        7.3548788389        1.2054949555
Ag            4.1602749047        0.0000000000        0.2655598488
Ag            6.2408220000        1.4709741499        1.2054020629
Ag            4.1602738771        2.9419517656        0.2655610377
Ag            6.2408220000        4.4129280000        1.2054049191
Ag            4.1602738771        5.8839042344        0.2655610377
Ag            6.2408220000        7.3548818501        1.2054020629
Ag            8.3213690953        0.0000000000        0.2655598488
Ag           10.4016685441        1.4709771611        1.2054949555
Ag            8.3213701229        2.9419517656        0.2655610377
Ag           10.4016701388        4.4129280000        1.2054991621
Ag            8.3213701229        5.8839042344        0.2655610377
Ag           10.4016685441        7.3548788389        1.2054949555
End final coordinates

     Writing output data file ./surface.save/

     General routines

     Parallel routines

   This run was terminated on:  19: 9:53   6Dec2021

   JOB DONE.