     Program PWSCF v.6.7MaX starts on  6Dec2021 at  0:25:26

     R & G space division:  proc/nbgrp/npool/nimage =      32
     Reading input from ag_surface.100.k.qe.4_4_1.in

     Current dimensions of program PWSCF are:
     Max number of different atomic species (ntypx) = 10
     Max number of k-points (npk) =  40000
     Max angular momentum in pseudopotentials (lmaxx) =  3

     Found symmetry operation: I + (  0.2500  0.2500  0.0000)
     This is a supercell, fractional translations are disabled

     bravais-lattice index     =            8
     lattice parameter (alat)  =      15.7246  a.u.
     unit-cell volume          =    6616.6507 (a.u.)^3
     number of atoms/cell      =           16
     number of atomic types    =            1
     number of electrons       =       304.00
     number of Kohn-Sham states=          182
     kinetic-energy cutoff     =      30.0000  Ry
     charge density cutoff     =     300.0000  Ry
     scf convergence threshold =      1.0E-06
     mixing beta               =       0.3000
     number of iterations used =            8  plain     mixing
     energy convergence thresh.=      1.0E-04
     force convergence thresh. =      1.0E-03
     Exchange-correlation=  SLA  PW   PBX  PBC
                           (   1   4   3   4   0   0   0)
     nstep                     =           50

     celldm(1)=  15.724600  celldm(2)=   1.000000  celldm(3)=   1.701764
     celldm(4)=   0.000000  celldm(5)=   0.000000  celldm(6)=   0.000000

     crystal axes: (cart. coord. in units of alat)
               a(1) = (   1.000000   0.000000   0.000000 )
               a(2) = (   0.000000   1.000000   0.000000 )
               a(3) = (   0.000000   0.000000   1.701764 )

     reciprocal axes: (cart. coord. in units 2 pi/alat)
               b(1) = (  1.000000  0.000000  0.000000 )
               b(2) = (  0.000000  1.000000  0.000000 )
               b(3) = (  0.000000  0.000000  0.587625 )

     PseudoPot. # 1 for Ag read from file:
     /expanse/lustre/projects/csd622/tpascal/nano110/qe/pseudo/ag_pbe_v1.4.uspp.F.UPF
     MD5 check sum: d66d668201baa78d5eb5b04ef7011058
     Pseudo is Ultrasoft + core correction, Zval = 19.0
     Generated by new atomic code, or converted to UPF format
     Using radial grid of  887 points,  6 beta functions with:
                l(1) =   0
                l(2) =   0
                l(3) =   1
                l(4) =   1
                l(5) =   2
                l(6) =   2
     Q(r) pseudized with  6 coefficients,  rinner =    1.300   1.300   1.300
                                                       1.300   1.300

     atomic species   valence    mass     pseudopotential
        Ag            19.00   107.86820     Ag( 1.00)

      8 Sym. Ops. (no inversion) found

                                    s                        frac. trans.

      isym =  1     identity

 cryst.   s( 1) = (     1          0          0      )
                  (     0          1          0      )
                  (     0          0          1      )

 cart.    s( 1) = (  1.0000000  0.0000000  0.0000000 )
                  (  0.0000000  1.0000000  0.0000000 )
                  (  0.0000000  0.0000000  1.0000000 )

      isym =  2     180 deg rotation - cart. axis [0,0,1]

[...]

      isym =  4      90 deg rotation - cart. axis [0,0,1]

[...]

      isym =  5     inv. 180 deg rotation - cart. axis [0,1,0]

[...]

      isym =  8     inv. 180 deg rotation - cart. axis [1,-1,0]

 cryst.   s( 8) = (     0          1          0      )
                  (     1          0          0      )
                  (     0          0          1      )

 cart.    s( 8) = (  0.0000000  1.0000000  0.0000000 )
                  (  1.0000000  0.0000000  0.0000000 )
                  (  0.0000000  0.0000000  1.0000000 )

     point group C_4v (4mm)
     there are  5 classes
     the character table:

       E     2C4   C2    2s_v  2s_d
A_1    1.00  1.00  1.00  1.00  1.00
A_2    1.00  1.00  1.00 -1.00 -1.00
B_1    1.00 -1.00  1.00  1.00 -1.00
B_2    1.00 -1.00  1.00 -1.00  1.00
E      2.00  0.00 -2.00  0.00  0.00

     the symmetry operations in each class and the name of the first element:

     E        1
          identity
     2C4      3    4
           90 deg rotation - cart. axis [0,0,-1]
     C2       2
          180 deg rotation - cart. axis [0,0,1]
     2s_v     5    6
          inv. 180 deg rotation - cart. axis [0,1,0]
     2s_d     7    8
          inv. 180 deg rotation - cart. axis [1,1,0]

   Cartesian axes

     site n.     atom                  positions (alat units)
         1           Ag  tau(   1) = (   0.0000000   0.0000000   0.0000000  )
         2           Ag  tau(   2) = (   0.0000000   0.2499999   0.2499999  )
         3           Ag  tau(   3) = (   0.2499999   0.0000000   0.2499999  )
         4           Ag  tau(   4) = (   0.2499999   0.2499999   0.0000000  )
         5           Ag  tau(   5) = (   0.0000000   0.4999998   0.0000000  )
         6           Ag  tau(   6) = (   0.0000000   0.7499996   0.2499999  )
         7           Ag  tau(   7) = (   0.2499999   0.4999998   0.2499999  )
         8           Ag  tau(   8) = (   0.2499999   0.7499996   0.0000000  )
         9           Ag  tau(   9) = (   0.4999998   0.0000000   0.0000000  )
        10           Ag  tau(  10) = (   0.4999998   0.2499999   0.2499999  )
        11           Ag  tau(  11) = (   0.7499996   0.0000000   0.2499999  )
        12           Ag  tau(  12) = (   0.7499996   0.2499999   0.0000000  )
        13           Ag  tau(  13) = (   0.4999998   0.4999998   0.0000000  )
        14           Ag  tau(  14) = (   0.4999998   0.7499996   0.2499999  )
        15           Ag  tau(  15) = (   0.7499996   0.4999998   0.2499999  )
        16           Ag  tau(  16) = (   0.7499996   0.7499996   0.0000000  )

   Crystallographic axes

     site n.     atom                  positions (cryst. coord.)
         1           Ag  tau(   1) = (  0.0000000  0.0000000  0.0000000  )
         2           Ag  tau(   2) = (  0.0000000  0.2499999  0.1469063  )
         3           Ag  tau(   3) = (  0.2499999  0.0000000  0.1469063  )
         4           Ag  tau(   4) = (  0.2499999  0.2499999  0.0000000  )
         5           Ag  tau(   5) = (  0.0000000  0.4999998  0.0000000  )
         6           Ag  tau(   6) = (  0.0000000  0.7499996  0.1469063  )
         7           Ag  tau(   7) = (  0.2499999  0.4999998  0.1469063  )
         8           Ag  tau(   8) = (  0.2499999  0.7499996  0.0000000  )
         9           Ag  tau(   9) = (  0.4999998  0.0000000  0.0000000  )
        10           Ag  tau(  10) = (  0.4999998  0.2499999  0.1469063  )
        11           Ag  tau(  11) = (  0.7499996  0.0000000  0.1469063  )
        12           Ag  tau(  12) = (  0.7499996  0.2499999  0.0000000  )
        13           Ag  tau(  13) = (  0.4999998  0.4999998  0.0000000  )
        14           Ag  tau(  14) = (  0.4999998  0.7499996  0.1469063  )
        15           Ag  tau(  15) = (  0.7499996  0.4999998  0.1469063  )
        16           Ag  tau(  16) = (  0.7499996  0.7499996  0.0000000  )

     number of k points=     6  Gaussian smearing, width (Ry)=  0.0030
                       cart. coord. in units 2pi/alat
        k(    1) = (   0.0000000   0.0000000   0.0000000), wk =   0.1250000
        k(    2) = (   0.0000000   0.2500000   0.0000000), wk =   0.5000000
        k(    3) = (   0.0000000  -0.5000000   0.0000000), wk =   0.2500000
        k(    4) = (   0.2500000   0.2500000   0.0000000), wk =   0.5000000
        k(    5) = (   0.2500000  -0.5000000   0.0000000), wk =   0.5000000
        k(    6) = (  -0.5000000  -0.5000000   0.0000000), wk =   0.1250000

                       cryst. coord.
        k(    1) = (   0.0000000   0.0000000   0.0000000), wk =   0.1250000
        k(    2) = (   0.0000000   0.2500000   0.0000000), wk =   0.5000000
        k(    3) = (   0.0000000  -0.5000000   0.0000000), wk =   0.2500000
        k(    4) = (   0.2500000   0.2500000   0.0000000), wk =   0.5000000
        k(    5) = (   0.2500000  -0.5000000   0.0000000), wk =   0.5000000
        k(    6) = (  -0.5000000  -0.5000000   0.0000000), wk =   0.1250000

     Initial potential from superposition of free atoms

     starting charge  295.99924, renormalised to  304.00000

     negative rho (up, down):  5.356E-03 0.000E+00
     Starting wfcs are  208 randomized atomic wfcs

     Self-consistent Calculation

     iteration #  1     ecut=    30.00 Ry     beta= 0.30
     Davidson diagonalization with overlap
     ethr =  1.00E-02,  avg # of iterations =  7.5

     negative rho (up, down):  5.707E-04 0.000E+00

     total energy              =   -4722.94621740 Ry
     estimated scf accuracy    <      27.54797045 Ry

[...]

     End of self-consistent calculation

          k = 0.0000 0.0000 0.0000 ( 18383 PWs)   bands (ev):

   -89.9376 -89.9310 -89.9310 -89.9310 -89.9310 -89.9289 -89.9289 -89.9289
   -89.9287 -89.9287 -89.9266 -89.9266 -89.9266 -89.9266 -89.9245 -89.9243
   -53.4548 -53.4548 -53.4524 -53.4524 -53.4522 -53.4522 -53.4233 -53.4233
   -53.4233 -53.4233 -53.4212 -53.4212 -53.4212 -53.4212 -53.4189 -53.4178
   -53.4178 -53.4097 -53.4097 -53.4097 -53.4097 -53.3904 -53.3904 -53.3904
   -53.3904 -53.3873 -53.3873 -53.3841 -53.3841 -53.3841 -53.3841 -53.3760
   -53.3758 -53.3725 -53.3725 -53.3723 -53.3723 -53.3697 -53.3697 -53.3695
   -53.3695 -53.3632 -53.3632 -53.3593 -53.3593 -53.3593 -53.3593 -53.3570
    -4.2254  -3.7426  -3.7124  -3.6015  -3.6014  -3.5319  -3.5318  -3.5318
    -3.5318  -3.4040  -3.4040  -3.1037  -3.1037  -3.1036  -3.1036  -3.0980
    -3.0980  -3.0980  -3.0980  -3.0524  -2.9831  -2.9831  -2.9831  -2.9831
    -2.7769  -2.7769  -2.7768  -2.7768  -2.6484  -2.6484  -2.6484  -2.6484
    -2.3771  -2.3771  -2.3771  -2.3771  -2.3136  -2.3136  -2.3135  -2.3135
    -2.2480  -2.2480  -2.2480  -2.2480  -2.2429  -2.2429  -2.2273  -2.2273
    -2.2273  -2.2273  -2.0669  -1.8534  -1.8534  -1.8534  -1.8534  -1.8064
    -1.8064  -1.8064  -1.8064  -1.7694  -1.7694  -1.6415  -1.6415  -1.6414
    -1.6414  -1.5762  -1.5003  -1.5001  -1.4020  -1.4020  -1.4020  -1.4020
    -1.3994  -1.3994  -1.3993  -1.3993  -1.2974  -1.2974  -1.2243  -0.8491
    -0.8489  -0.5809  -0.5809  -0.5808  -0.5808   0.1889   1.8928   1.8929
     1.8929   1.8930   2.5283   2.5283   2.5284   2.5284   3.0460   4.7997
     4.7997   4.7998   4.7999   5.1465   5.1465   5.7296   5.9294   5.9294
     5.9295   5.9295   6.1367   8.0187   8.0187   8.0191   8.0191   8.1670
     8.1671   8.1671   8.1672   8.6673   8.6673   8.6677

     occupation numbers
     1.0000   1.0000   1.0000   1.0000   1.0000   1.0000   1.0000   1.0000
     1.0000   1.0000   1.0000   1.0000   1.0000   1.0000   1.0000   1.0000
     1.0000   1.0000   1.0000   1.0000   1.0000   1.0000   1.0000   1.0000
     1.0000   1.0000   1.0000   1.0000   1.0000   1.0000   1.0000   1.0000
     1.0000   1.0000   1.0000   1.0000   1.0000   1.0000   1.0000   1.0000
     1.0000   1.0000   1.0000   1.0000   1.0000   1.0000   1.0000   1.0000
     1.0000   1.0000   1.0000   1.0000   1.0000   1.0000   1.0000   1.0000
[...]
   -53.4295 -53.4294 -53.4294 -53.4294 -53.4293 -53.4293 -53.4292 -53.4292
   -53.4189 -53.4188 -53.4188 -53.4188 -53.4108 -53.4107 -53.4107 -53.4106
    -3.6988  -3.6987  -3.6987  -3.6987  -3.6876  -3.6875  -3.6875  -3.6874
    -3.4186  -3.4186  -3.4185  -3.4185  -3.4185  -3.4185  -3.4184  -3.4184
    -3.2050  -3.2050  -3.2049  -3.2049  -3.2048  -3.2048  -3.2048  -3.2047
    -3.1339  -3.1338  -3.1338  -3.1337  -2.5710  -2.5709  -2.5709  -2.5709
    -2.4756  -2.4755  -2.4755  -2.4755  -2.3529  -2.3529  -2.3529  -2.3529
    -2.1979  -2.1979  -2.1979  -2.1979  -2.1979  -2.1979  -2.1979  -2.1978
    -2.1102  -2.1101  -2.1101  -2.1100  -2.0032  -2.0031  -2.0031  -2.0031
    -1.7237  -1.7237  -1.7237  -1.7237  -1.7236  -1.7236  -1.7236  -1.7236
    -1.5861  -1.5860  -1.5860  -1.5860  -1.4660  -1.4659  -1.4659  -1.4658
    -1.3848  -1.3848  -1.3848  -1.3848  -1.3848  -1.3847  -1.3847  -1.3847
    -1.2366  -1.2365  -1.2365  -1.2365   1.3610   1.3611   1.3611   1.3612
     3.0860   3.0860   3.0860   3.0861   3.0861   3.0861   3.0862   3.0862
     4.6563   4.6564   4.6564   4.6565   6.0553   6.0553   6.0554   6.0554
     6.0554   6.0555   6.0555   6.0555   6.8926   6.8927   6.8927   6.8927
     7.1750   7.1751   7.1751   7.1751   8.1205   8.1206

     occupation numbers
     1.0000   1.0000   1.0000   1.0000   1.0000   1.0000   1.0000   1.0000
     1.0000   1.0000   1.0000   1.0000   1.0000   1.0000   1.0000   1.0000
     1.0000   1.0000   1.0000   1.0000   1.0000   1.0000   1.0000   1.0000
     1.0000   1.0000   1.0000   1.0000   1.0000   1.0000   1.0000   1.0000
     1.0000   1.0000   1.0000   1.0000   1.0000   1.0000   1.0000   1.0000
     1.0000   1.0000   1.0000   1.0000   1.0000   1.0000   1.0000   1.0000
     1.0000   1.0000   1.0000   1.0000   1.0000   1.0000   1.0000   1.0000
     1.0000   1.0000   1.0000   1.0000   1.0000   1.0000   1.0000   1.0000
     1.0000   1.0000   1.0000   1.0000   1.0000   1.0000   1.0000   1.0000
     1.0000   1.0000   1.0000   1.0000   1.0000   1.0000   1.0000   1.0000
     1.0000   1.0000   1.0000   1.0000   1.0000   1.0000   1.0000   1.0000
     1.0000   1.0000   1.0000   1.0000   1.0000   1.0000   1.0000   1.0000
     1.0000   1.0000   1.0000   1.0000   1.0000   1.0000   1.0000   1.0000
     1.0000   1.0000   1.0000   1.0000   1.0000   1.0000   1.0000   1.0000
     1.0000   1.0000   1.0000   1.0000   1.0000   1.0000   1.0000   1.0000
     1.0000   1.0000   1.0000   1.0000   1.0000   1.0000   1.0000   1.0000
     1.0000   1.0000   1.0000   1.0000   1.0000   1.0000   1.0000   1.0000
     1.0000   1.0000   1.0000   1.0000   1.0000   1.0000   1.0000   1.0000
     1.0000   1.0000   1.0000   1.0000   1.0000   1.0000   1.0000   1.0000
     0.0000   0.0000   0.0000   0.0000   0.0000   0.0000   0.0000   0.0000
     0.0000   0.0000   0.0000   0.0000   0.0000   0.0000   0.0000   0.0000
     0.0000   0.0000   0.0000   0.0000   0.0000   0.0000   0.0000   0.0000
     0.0000   0.0000   0.0000   0.0000   0.0000   0.0000

     the Fermi energy is     1.6810 ev

!    total energy              =   -4729.29525819 Ry
     estimated scf accuracy    <          5.8E-09 Ry
     smearing contrib. (-TS)   =      -0.00067703 Ry
     internal energy E=F+TS    =   -4729.29458117 Ry

     The total energy is F=E-TS. E is the sum of the following terms:
     one-electron contribution =  -13601.69473934 Ry
     hartree contribution      =    6785.14384529 Ry
     xc contribution           =    -462.79585022 Ry
     ewald contribution        =    2550.05216311 Ry

     convergence has been achieved in   4 iterations

     negative rho (up, down):  4.502E-03 0.000E+00

     Forces acting on atoms (cartesian axes, Ry/au):

     atom    1 type  1   force =     0.00000000    0.00000000   -0.00001370
     atom    2 type  1   force =     0.00000000   -0.00000061    0.00002202
     atom    3 type  1   force =    -0.00000061    0.00000000    0.00002202
     atom    4 type  1   force =    -0.00000096   -0.00000096   -0.00003030
     atom    5 type  1   force =     0.00000000    0.00000000   -0.00001582
     atom    6 type  1   force =     0.00000000    0.00000061    0.00002202
     atom    7 type  1   force =    -0.00000071    0.00000000    0.00002425
     atom    8 type  1   force =    -0.00000096    0.00000096   -0.00003030
     atom    9 type  1   force =     0.00000000    0.00000000   -0.00001582
     atom   10 type  1   force =     0.00000000   -0.00000071    0.00002425
     atom   11 type  1   force =     0.00000061    0.00000000    0.00002202
     atom   12 type  1   force =     0.00000096   -0.00000096   -0.00003030
     atom   13 type  1   force =     0.00000000    0.00000000   -0.00001853
     atom   14 type  1   force =     0.00000000    0.00000071    0.00002425
     atom   15 type  1   force =     0.00000071    0.00000000    0.00002425
     atom   16 type  1   force =     0.00000096    0.00000096   -0.00003030
     The non-local contrib.  to forces
     atom    1 type  1   force =     0.00000000    0.00000000   -0.20038244
     atom    2 type  1   force =     0.00000000    0.00000133    0.20037903
     atom    3 type  1   force =     0.00000133    0.00000000    0.20037903
     atom    4 type  1   force =     0.00000086    0.00000086   -0.20038198
     atom    5 type  1   force =     0.00000000    0.00000000   -0.20038504
     atom    6 type  1   force =     0.00000000   -0.00000133    0.20037903
     atom    7 type  1   force =     0.00000008    0.00000000    0.20038441
     atom    8 type  1   force =     0.00000086   -0.00000086   -0.20038198
     atom    9 type  1   force =     0.00000000    0.00000000   -0.20038504
     atom   10 type  1   force =     0.00000000    0.00000008    0.20038441
     atom   11 type  1   force =    -0.00000133    0.00000000    0.20037903
     atom   12 type  1   force =    -0.00000086    0.00000086   -0.20038198
     atom   13 type  1   force =     0.00000000    0.00000000   -0.20038681
     atom   14 type  1   force =     0.00000000   -0.00000008    0.20038441
     atom   15 type  1   force =    -0.00000008    0.00000000    0.20038441
     atom   16 type  1   force =    -0.00000086   -0.00000086   -0.20038198
     The ionic contribution  to forces
     atom    1 type  1   force =    -0.00011841   -0.00011841  -98.50352515
     atom    2 type  1   force =    -0.00011841    0.00050711   98.49979023
     atom    3 type  1   force =     0.00050711   -0.00011841   98.49979023
     atom    4 type  1   force =     0.00047864    0.00047864  -98.49692849
     atom    5 type  1   force =    -0.00011841    0.00004531  -98.50205319
     atom    6 type  1   force =    -0.00011841   -0.00043401   98.49973783
     atom    7 type  1   force =     0.00037895    0.00004531   98.49925206
     atom    8 type  1   force =     0.00047864   -0.00040554  -98.49687610
     atom    9 type  1   force =     0.00004531   -0.00011841  -98.50205319
     atom   10 type  1   force =     0.00004531    0.00037895   98.49925206
     atom   11 type  1   force =    -0.00043401   -0.00011841   98.49973783
     atom   12 type  1   force =    -0.00040554    0.00047864  -98.49687610
     atom   13 type  1   force =     0.00004531    0.00004531  -98.50082367
     atom   14 type  1   force =     0.00004531   -0.00030585   98.49919967
     atom   15 type  1   force =    -0.00030585    0.00004531   98.49919967
     atom   16 type  1   force =    -0.00040554   -0.00040554  -98.49682370
     The local contribution  to forces
     atom    1 type  1   force =    -0.00000000   -0.00000000   98.70258076
     atom    2 type  1   force =    -0.00000000    0.00031934  -98.69868175
     atom    3 type  1   force =     0.00031934    0.00000000  -98.69868175
     atom    4 type  1   force =     0.00034763    0.00034763   98.69592757
     atom    5 type  1   force =    -0.00000000    0.00077526   98.70111994
     atom    6 type  1   force =    -0.00000000    0.00123119  -98.69868175
     atom    7 type  1   force =     0.00044707    0.00077526  -98.69815454
     atom    8 type  1   force =     0.00034763    0.00120290   98.69592757
     atom    9 type  1   force =     0.00077526   -0.00000000   98.70111994
     atom   10 type  1   force =     0.00077526    0.00044707  -98.69815454
     atom   11 type  1   force =     0.00123119    0.00000000  -98.69868175
     atom   12 type  1   force =     0.00120290    0.00034763   98.69592757
     atom   13 type  1   force =     0.00077526    0.00077526   98.69989846
     atom   14 type  1   force =     0.00077526    0.00110346  -98.69815454
     atom   15 type  1   force =     0.00110346    0.00077526  -98.69815454
     atom   16 type  1   force =     0.00120290    0.00120290   98.69592757
     The core correction contribution to forces
     atom    1 type  1   force =    -0.00000000   -0.00000000    0.00145609
     atom    2 type  1   force =    -0.00000000    0.00000049   -0.00145600
     atom    3 type  1   force =     0.00000049   -0.00000000   -0.00145600
     atom    4 type  1   force =     0.00000049    0.00000049    0.00145529
     atom    5 type  1   force =    -0.00000000    0.00000050    0.00145608
     atom    6 type  1   force =    -0.00000000    0.00000052   -0.00145600
     atom    7 type  1   force =     0.00000050    0.00000050   -0.00145601
     atom    8 type  1   force =     0.00000049    0.00000051    0.00145529
     atom    9 type  1   force =     0.00000050   -0.00000000    0.00145608
     atom   10 type  1   force =     0.00000050    0.00000050   -0.00145601
     atom   11 type  1   force =     0.00000052   -0.00000000   -0.00145600
     atom   12 type  1   force =     0.00000051    0.00000049    0.00145529
     atom   13 type  1   force =     0.00000050    0.00000050    0.00145607
     atom   14 type  1   force =     0.00000050    0.00000051   -0.00145601
     atom   15 type  1   force =     0.00000051    0.00000050   -0.00145601
     atom   16 type  1   force =     0.00000051    0.00000051    0.00145529
     The Hubbard contrib.    to forces
     atom    1 type  1   force =     0.00000000    0.00000000    0.00000000
     atom    2 type  1   force =     0.00000000    0.00000000    0.00000000
     atom    3 type  1   force =     0.00000000    0.00000000    0.00000000
     atom    4 type  1   force =     0.00000000    0.00000000    0.00000000
     atom    5 type  1   force =     0.00000000    0.00000000    0.00000000
     atom    6 type  1   force =     0.00000000    0.00000000    0.00000000
     atom    7 type  1   force =     0.00000000    0.00000000    0.00000000
     atom    8 type  1   force =     0.00000000    0.00000000    0.00000000
     atom    9 type  1   force =     0.00000000    0.00000000    0.00000000
     atom   10 type  1   force =     0.00000000    0.00000000    0.00000000
     atom   11 type  1   force =     0.00000000    0.00000000    0.00000000
     atom   12 type  1   force =     0.00000000    0.00000000    0.00000000
     atom   13 type  1   force =     0.00000000    0.00000000    0.00000000
     atom   14 type  1   force =     0.00000000    0.00000000    0.00000000
     atom   15 type  1   force =     0.00000000    0.00000000    0.00000000
     atom   16 type  1   force =     0.00000000    0.00000000    0.00000000
     The SCF correction term to forces
     atom    1 type  1   force =    -0.00000000   -0.00000000   -0.00015327
     atom    2 type  1   force =    -0.00000000   -0.00001658    0.00000640
     atom    3 type  1   force =    -0.00001658   -0.00000000    0.00000640
     atom    4 type  1   force =    -0.00001626   -0.00001626   -0.00016540
     atom    5 type  1   force =    -0.00000000   -0.00000000   -0.00016392
     atom    6 type  1   force =    -0.00000000    0.00001658    0.00000639
     atom    7 type  1   force =    -0.00001499   -0.00000000    0.00001421
     atom    8 type  1   force =    -0.00001626    0.00001626   -0.00016539
     atom    9 type  1   force =    -0.00000000   -0.00000000   -0.00016392
     atom   10 type  1   force =    -0.00000000   -0.00001499    0.00001421
     atom   11 type  1   force =     0.00001658   -0.00000000    0.00000639
     atom   12 type  1   force =     0.00001626   -0.00001626   -0.00016539
     atom   13 type  1   force =    -0.00000000   -0.00000000   -0.00017290
     atom   14 type  1   force =    -0.00000000    0.00001499    0.00001421
     atom   15 type  1   force =     0.00001499   -0.00000000    0.00001421
     atom   16 type  1   force =     0.00001626    0.00001626   -0.00016538

     Total force =     0.000095     Total SCF correction =     0.000471
     SCF correction compared to forces is large: reduce conv_thr to get better values

     Computing stress (Cartesian axis) and pressure

     negative rho (up, down):  4.502E-03 0.000E+00
          total   stress  (Ry/bohr**3)                   (kbar)     P=      -39.79
  -0.00030642   0.00000000   0.00000000          -45.08        0.00        0.00
   0.00000000  -0.00030642   0.00000000            0.00      -45.08        0.00
   0.00000000   0.00000000  -0.00019864            0.00        0.00      -29.22

     kinetic stress (kbar)  15878.26      0.00      0.00
                                0.00  15878.26      0.00
                                0.00      0.00  15954.70

     local   stress (kbar)-250894.24     -0.00      0.00
                               -0.00-250894.24      0.00
                                0.00      0.00 250614.27

     nonloc. stress (kbar)   1858.31      0.00      0.00
                                0.00   1858.31      0.00
                                0.00      0.00   1839.37

     hartree stress (kbar) 131812.63      0.00      0.00
                                0.00 131812.63      0.00
                                0.00      0.00-112774.14

     exc-cor stress (kbar)  -2862.87     -0.00      0.00
                               -0.00  -2862.87      0.00
                                0.00      0.00  -2868.66

     corecor stress (kbar)   -387.77      0.00      0.00
                                0.00   -387.77      0.00
                                0.00      0.00   -387.72

     ewald   stress (kbar) 104550.61      0.00     -0.00
                                0.00 104550.61     -0.00
                               -0.00     -0.00-152407.04

     hubbard stress (kbar)      0.00      0.00      0.00
                                0.00      0.00      0.00
                                0.00      0.00      0.00

     DFT-D   stress (kbar)      0.00      0.00      0.00
                                0.00      0.00      0.00
                                0.00      0.00      0.00

     XDM     stress (kbar)      0.00      0.00      0.00
                                0.00      0.00      0.00
                                0.00      0.00      0.00

     dft-nl  stress (kbar)      0.00      0.00      0.00
                                0.00      0.00      0.00
                                0.00      0.00      0.00

     TS-vdW  stress (kbar)      0.00      0.00      0.00
                                0.00      0.00      0.00
                                0.00      0.00      0.00

     Energy error            =      3.5E-07
     Gradient error          =      3.0E-05

     bfgs converged in   7 scf cycles and   6 bfgs steps
     (criteria: energy <  1.0E-04 Ry, force <  1.0E-03 Ry/Bohr)

     End of BFGS Geometry Optimization

     Final energy   =   -4729.2952581932 Ry

     File ./surface.bfgs deleted, as requested
Begin final coordinates

ATOMIC_POSITIONS (angstrom)
Ag            0.0000000000        0.0000000000        0.0368893309
Ag            0.0000000000        2.0802629848        2.0433271874
Ag            2.0802629848        0.0000000000        2.0433271874
Ag            2.0802669684        2.0802669684        0.0369922284
Ag            0.0000000000        4.1605480000        0.0369112543
Ag            0.0000000000        6.2408330152        2.0433271874
Ag            2.0802646378        4.1605480000        2.0433178119
Ag            2.0802669684        6.2408290316        0.0369922284
Ag            4.1605480000        0.0000000000        0.0369112543
Ag            4.1605480000        2.0802646378        2.0433178119
Ag            6.2408330152        0.0000000000        2.0433271874
Ag            6.2408290316        2.0802669684        0.0369922284
Ag            4.1605480000        4.1605480000        0.0369312498
Ag            4.1605480000        6.2408313622        2.0433178119
Ag            6.2408313622        4.1605480000        2.0433178119
Ag            6.2408290316        6.2408290316        0.0369922284
End final coordinates

     Writing output data file ./surface.save/

     General routines

     Parallel routines

   This run was terminated on:   0:28:52   6Dec2021

   JOB DONE.