     Program PWSCF v.6.7MaX starts on  6Dec2021 at  0:25:25

     R & G space division:  proc/nbgrp/npool/nimage =      32
     Reading input from ag_surface.100.k.qe.8_8_1.in

     Current dimensions of program PWSCF are:
     Max number of different atomic species (ntypx) = 10
     Max number of k-points (npk) =  40000
     Max angular momentum in pseudopotentials (lmaxx) =  3

     Found symmetry operation: I + (  0.2500  0.2500  0.0000)
     This is a supercell, fractional translations are disabled

     bravais-lattice index     =            8
     lattice parameter (alat)  =      15.7246  a.u.
     unit-cell volume          =    6616.6507 (a.u.)^3
     number of atoms/cell      =           16
     number of atomic types    =            1
     number of electrons       =       304.00
     number of Kohn-Sham states=          182
     kinetic-energy cutoff     =      30.0000  Ry
     charge density cutoff     =     300.0000  Ry
     scf convergence threshold =      1.0E-06
     mixing beta               =       0.3000
     number of iterations used =            8  plain     mixing
     energy convergence thresh.=      1.0E-04
     force convergence thresh. =      1.0E-03
     Exchange-correlation=  SLA  PW   PBX  PBC
                           (   1   4   3   4   0   0   0)
     nstep                     =           50

     celldm(1)=  15.724600  celldm(2)=   1.000000  celldm(3)=   1.701764
     celldm(4)=   0.000000  celldm(5)=   0.000000  celldm(6)=   0.000000

     crystal axes: (cart. coord. in units of alat)
               a(1) = (   1.000000   0.000000   0.000000 )
               a(2) = (   0.000000   1.000000   0.000000 )
               a(3) = (   0.000000   0.000000   1.701764 )

     reciprocal axes: (cart. coord. in units 2 pi/alat)
               b(1) = (  1.000000  0.000000  0.000000 )
               b(2) = (  0.000000  1.000000  0.000000 )
               b(3) = (  0.000000  0.000000  0.587625 )

     PseudoPot. # 1 for Ag read from file:
     /expanse/lustre/projects/csd622/tpascal/nano110/qe/pseudo/ag_pbe_v1.4.uspp.F.UPF
     MD5 check sum: d66d668201baa78d5eb5b04ef7011058
     Pseudo is Ultrasoft + core correction, Zval = 19.0
     Generated by new atomic code, or converted to UPF format
     Using radial grid of  887 points,  6 beta functions with:
                l(1) =   0
                l(2) =   0
                l(3) =   1
                l(4) =   1
                l(5) =   2
                l(6) =   2
     Q(r) pseudized with  6 coefficients,  rinner =    1.300   1.300   1.300
                                                       1.300   1.300

     atomic species   valence    mass     pseudopotential
        Ag            19.00   107.86820     Ag( 1.00)

      8 Sym. Ops. (no inversion) found

                                    s                        frac. trans.

      isym =  1     identity

 cryst.   s( 1) = (     1          0          0      )
                  (     0          1          0      )
                  (     0          0          1      )

 cart.    s( 1) = (  1.0000000  0.0000000  0.0000000 )
                  (  0.0000000  1.0000000  0.0000000 )
                  (  0.0000000  0.0000000  1.0000000 )

      isym =  2     180 deg rotation - cart. axis [0,0,1]

[...]

      isym =  4      90 deg rotation - cart. axis [0,0,1]

[...]

      isym =  5     inv. 180 deg rotation - cart. axis [0,1,0]

[...]

      isym =  8     inv. 180 deg rotation - cart. axis [1,-1,0]

 cryst.   s( 8) = (     0          1          0      )
                  (     1          0          0      )
                  (     0          0          1      )

 cart.    s( 8) = (  0.0000000  1.0000000  0.0000000 )
                  (  1.0000000  0.0000000  0.0000000 )
                  (  0.0000000  0.0000000  1.0000000 )

     point group C_4v (4mm)
     there are  5 classes
     the character table:

       E     2C4   C2    2s_v  2s_d
A_1    1.00  1.00  1.00  1.00  1.00
A_2    1.00  1.00  1.00 -1.00 -1.00
B_1    1.00 -1.00  1.00  1.00 -1.00
B_2    1.00 -1.00  1.00 -1.00  1.00
E      2.00  0.00 -2.00  0.00  0.00

     the symmetry operations in each class and the name of the first element:

     E        1
          identity
     2C4      3    4
           90 deg rotation - cart. axis [0,0,-1]
     C2       2
          180 deg rotation - cart. axis [0,0,1]
     2s_v     5    6
          inv. 180 deg rotation - cart. axis [0,1,0]
     2s_d     7    8
          inv. 180 deg rotation - cart. axis [1,1,0]

   Cartesian axes

     site n.     atom                  positions (alat units)
         1           Ag  tau(   1) = (   0.0000000   0.0000000   0.0000000  )
         2           Ag  tau(   2) = (   0.0000000   0.2499999   0.2499999  )
         3           Ag  tau(   3) = (   0.2499999   0.0000000   0.2499999  )
         4           Ag  tau(   4) = (   0.2499999   0.2499999   0.0000000  )
         5           Ag  tau(   5) = (   0.0000000   0.4999998   0.0000000  )
         6           Ag  tau(   6) = (   0.0000000   0.7499996   0.2499999  )
         7           Ag  tau(   7) = (   0.2499999   0.4999998   0.2499999  )
         8           Ag  tau(   8) = (   0.2499999   0.7499996   0.0000000  )
         9           Ag  tau(   9) = (   0.4999998   0.0000000   0.0000000  )
        10           Ag  tau(  10) = (   0.4999998   0.2499999   0.2499999  )
        11           Ag  tau(  11) = (   0.7499996   0.0000000   0.2499999  )
        12           Ag  tau(  12) = (   0.7499996   0.2499999   0.0000000  )
        13           Ag  tau(  13) = (   0.4999998   0.4999998   0.0000000  )
        14           Ag  tau(  14) = (   0.4999998   0.7499996   0.2499999  )
        15           Ag  tau(  15) = (   0.7499996   0.4999998   0.2499999  )
        16           Ag  tau(  16) = (   0.7499996   0.7499996   0.0000000  )

   Crystallographic axes

     site n.     atom                  positions (cryst. coord.)
         1           Ag  tau(   1) = (  0.0000000  0.0000000  0.0000000  )
         2           Ag  tau(   2) = (  0.0000000  0.2499999  0.1469063  )
         3           Ag  tau(   3) = (  0.2499999  0.0000000  0.1469063  )
         4           Ag  tau(   4) = (  0.2499999  0.2499999  0.0000000  )
         5           Ag  tau(   5) = (  0.0000000  0.4999998  0.0000000  )
         6           Ag  tau(   6) = (  0.0000000  0.7499996  0.1469063  )
         7           Ag  tau(   7) = (  0.2499999  0.4999998  0.1469063  )
         8           Ag  tau(   8) = (  0.2499999  0.7499996  0.0000000  )
         9           Ag  tau(   9) = (  0.4999998  0.0000000  0.0000000  )
        10           Ag  tau(  10) = (  0.4999998  0.2499999  0.1469063  )
        11           Ag  tau(  11) = (  0.7499996  0.0000000  0.1469063  )
        12           Ag  tau(  12) = (  0.7499996  0.2499999  0.0000000  )
        13           Ag  tau(  13) = (  0.4999998  0.4999998  0.0000000  )
        14           Ag  tau(  14) = (  0.4999998  0.7499996  0.1469063  )
        15           Ag  tau(  15) = (  0.7499996  0.4999998  0.1469063  )
        16           Ag  tau(  16) = (  0.7499996  0.7499996  0.0000000  )

     number of k points=    15  Gaussian smearing, width (Ry)=  0.0030
                       cart. coord. in units 2pi/alat
        k(    1) = (   0.0000000   0.0000000   0.0000000), wk =   0.0312500
        k(    2) = (   0.0000000   0.1250000   0.0000000), wk =   0.1250000
        k(    3) = (   0.0000000   0.2500000   0.0000000), wk =   0.1250000
        k(    4) = (   0.0000000   0.3750000   0.0000000), wk =   0.1250000
        k(    5) = (   0.0000000  -0.5000000   0.0000000), wk =   0.0625000
        k(    6) = (   0.1250000   0.1250000   0.0000000), wk =   0.1250000
        k(    7) = (   0.1250000   0.2500000   0.0000000), wk =   0.2500000
        k(    8) = (   0.1250000   0.3750000   0.0000000), wk =   0.2500000
        k(    9) = (   0.1250000  -0.5000000   0.0000000), wk =   0.1250000
        k(   10) = (   0.2500000   0.2500000   0.0000000), wk =   0.1250000
        k(   11) = (   0.2500000   0.3750000   0.0000000), wk =   0.2500000
        k(   12) = (   0.2500000  -0.5000000   0.0000000), wk =   0.1250000
        k(   13) = (   0.3750000   0.3750000   0.0000000), wk =   0.1250000
        k(   14) = (   0.3750000  -0.5000000   0.0000000), wk =   0.1250000
        k(   15) = (  -0.5000000  -0.5000000   0.0000000), wk =   0.0312500

                       cryst. coord.
        k(    1) = (   0.0000000   0.0000000   0.0000000), wk =   0.0312500
        k(    2) = (   0.0000000   0.1250000   0.0000000), wk =   0.1250000
        k(    3) = (   0.0000000   0.2500000   0.0000000), wk =   0.1250000
        k(    4) = (   0.0000000   0.3750000   0.0000000), wk =   0.1250000
        k(    5) = (   0.0000000  -0.5000000   0.0000000), wk =   0.0625000
        k(    6) = (   0.1250000   0.1250000   0.0000000), wk =   0.1250000
        k(    7) = (   0.1250000   0.2500000   0.0000000), wk =   0.2500000
        k(    8) = (   0.1250000   0.3750000   0.0000000), wk =   0.2500000
        k(    9) = (   0.1250000  -0.5000000   0.0000000), wk =   0.1250000
        k(   10) = (   0.2500000   0.2500000   0.0000000), wk =   0.1250000
        k(   11) = (   0.2500000   0.3750000   0.0000000), wk =   0.2500000
        k(   12) = (   0.2500000  -0.5000000   0.0000000), wk =   0.1250000
        k(   13) = (   0.3750000   0.3750000   0.0000000), wk =   0.1250000
        k(   14) = (   0.3750000  -0.5000000   0.0000000), wk =   0.1250000
        k(   15) = (  -0.5000000  -0.5000000   0.0000000), wk =   0.0312500

     Initial potential from superposition of free atoms

     starting charge  295.99924, renormalised to  304.00000

     negative rho (up, down):  5.356E-03 0.000E+00
     Starting wfcs are  208 randomized atomic wfcs

     Self-consistent Calculation

     iteration #  1     ecut=    30.00 Ry     beta= 0.30
     Davidson diagonalization with overlap
     ethr =  1.00E-02,  avg # of iterations =  7.1

     negative rho (up, down):  1.030E-04 0.000E+00

     total energy              =   -4723.00686082 Ry
     estimated scf accuracy    <      27.39692778 Ry

[...]

     iteration #  5     ecut=    30.00 Ry     beta= 0.30
     Davidson diagonalization with overlap
     c_bands:  1 eigenvalues not converged
     ethr =  4.04E-06,  avg # of iterations =  5.5

[...]

     End of self-consistent calculation

          k = 0.0000 0.0000 0.0000 ( 18383 PWs)   bands (ev):

   -89.9494 -89.9428 -89.9428 -89.9428 -89.9428 -89.9406 -89.9406 -89.9406
   -89.9406 -89.9406 -89.9384 -89.9384 -89.9384 -89.9384 -89.9362 -89.9362
   -53.4670 -53.4670 -53.4643 -53.4642 -53.4642 -53.4642 -53.4348 -53.4348
   -53.4348 -53.4348 -53.4334 -53.4334 -53.4333 -53.4333 -53.4300 -53.4300
   -53.4290 -53.4216 -53.4216 -53.4216 -53.4216 -53.4026 -53.4026 -53.4026
   -53.4026 -53.3994 -53.3994 -53.3950 -53.3950 -53.3950 -53.3950 -53.3861
   -53.3861 -53.3828 -53.3828 -53.3828 -53.3828 -53.3818 -53.3817 -53.3817
   -53.3817 -53.3754 -53.3754 -53.3698 -53.3698 -53.3698 -53.3698 -53.3672
    -4.2340  -3.7535  -3.7217  -3.6120  -3.6120  -3.5420  -3.5420  -3.5420
    -3.5420  -3.4140  -3.4140  -3.1136  -3.1136  -3.1136  -3.1136  -3.1085
[...]
   -53.4122 -53.4122 -53.4122 -53.4122 -53.4121 -53.4121 -53.4120 -53.4120
   -53.3997 -53.3997 -53.3997 -53.3997 -53.3934 -53.3933 -53.3933 -53.3931
    -3.6895  -3.6894  -3.6894  -3.6894  -3.6739  -3.6738  -3.6738  -3.6737
    -3.4088  -3.4088  -3.4087  -3.4087  -3.4086  -3.4086  -3.4085  -3.4085
    -3.1950  -3.1950  -3.1948  -3.1948  -3.1948  -3.1948  -3.1947  -3.1946
    -3.1224  -3.1223  -3.1223  -3.1222  -2.5582  -2.5582  -2.5582  -2.5581
    -2.4474  -2.4473  -2.4473  -2.4473  -2.3452  -2.3451  -2.3451  -2.3451
    -2.1806  -2.1806  -2.1805  -2.1805  -2.1805  -2.1805  -2.1805  -2.1805
    -2.1001  -2.1000  -2.1000  -2.0999  -1.9788  -1.9787  -1.9787  -1.9786
    -1.6971  -1.6971  -1.6970  -1.6970  -1.6970  -1.6970  -1.6969  -1.6969
    -1.5674  -1.5674  -1.5673  -1.5673  -1.4393  -1.4392  -1.4392  -1.4391
    -1.3646  -1.3646  -1.3646  -1.3646  -1.3646  -1.3646  -1.3646  -1.3646
    -1.2104  -1.2104  -1.2104  -1.2104   1.3827   1.3828   1.3828   1.3829
     3.1049   3.1049   3.1050   3.1050   3.1051   3.1051   3.1052   3.1052
     4.6741   4.6742   4.6742   4.6743   6.0797   6.0798   6.0798   6.0798
     6.0799   6.0799   6.0799   6.0799   6.8862   6.8862   6.8862   6.8862
     7.1735   7.1735   7.1735   7.1736   8.1404   8.1404

     occupation numbers
     1.0000   1.0000   1.0000   1.0000   1.0000   1.0000   1.0000   1.0000
     1.0000   1.0000   1.0000   1.0000   1.0000   1.0000   1.0000   1.0000
     1.0000   1.0000   1.0000   1.0000   1.0000   1.0000   1.0000   1.0000
     1.0000   1.0000   1.0000   1.0000   1.0000   1.0000   1.0000   1.0000
     1.0000   1.0000   1.0000   1.0000   1.0000   1.0000   1.0000   1.0000
     1.0000   1.0000   1.0000   1.0000   1.0000   1.0000   1.0000   1.0000
     1.0000   1.0000   1.0000   1.0000   1.0000   1.0000   1.0000   1.0000
     1.0000   1.0000   1.0000   1.0000   1.0000   1.0000   1.0000   1.0000
     1.0000   1.0000   1.0000   1.0000   1.0000   1.0000   1.0000   1.0000
     1.0000   1.0000   1.0000   1.0000   1.0000   1.0000   1.0000   1.0000
     1.0000   1.0000   1.0000   1.0000   1.0000   1.0000   1.0000   1.0000
     1.0000   1.0000   1.0000   1.0000   1.0000   1.0000   1.0000   1.0000
     1.0000   1.0000   1.0000   1.0000   1.0000   1.0000   1.0000   1.0000
     1.0000   1.0000   1.0000   1.0000   1.0000   1.0000   1.0000   1.0000
     1.0000   1.0000   1.0000   1.0000   1.0000   1.0000   1.0000   1.0000
     1.0000   1.0000   1.0000   1.0000   1.0000   1.0000   1.0000   1.0000
     1.0000   1.0000   1.0000   1.0000   1.0000   1.0000   1.0000   1.0000
     1.0000   1.0000   1.0000   1.0000   1.0000   1.0000   1.0000   1.0000
     1.0000   1.0000   1.0000   1.0000   1.0000   1.0000   1.0000   1.0000
     0.0000   0.0000   0.0000   0.0000   0.0000   0.0000   0.0000   0.0000
     0.0000   0.0000   0.0000   0.0000   0.0000   0.0000   0.0000   0.0000
     0.0000   0.0000   0.0000   0.0000   0.0000   0.0000   0.0000   0.0000
     0.0000   0.0000   0.0000   0.0000   0.0000   0.0000

     the Fermi energy is     1.6538 ev

!    total energy              =   -4729.29337304 Ry
     estimated scf accuracy    <          3.3E-09 Ry
     smearing contrib. (-TS)   =      -0.00034636 Ry
     internal energy E=F+TS    =   -4729.29302668 Ry

     The total energy is F=E-TS. E is the sum of the following terms:
     one-electron contribution =  -13633.65296936 Ry
     hartree contribution      =    6801.33256351 Ry
     xc contribution           =    -462.81223166 Ry
     ewald contribution        =    2565.83961083 Ry

     convergence has been achieved in   5 iterations

     negative rho (up, down):  4.511E-03 0.000E+00

     Forces acting on atoms (cartesian axes, Ry/au):

     atom    1 type  1   force =     0.00000000    0.00000000    0.00005698
     atom    2 type  1   force =     0.00000000    0.00000796   -0.00004835
     atom    3 type  1   force =     0.00000796    0.00000000   -0.00004835
     atom    4 type  1   force =     0.00000756    0.00000756    0.00003920
     atom    5 type  1   force =     0.00000000    0.00000000    0.00006410
     atom    6 type  1   force =     0.00000000   -0.00000796   -0.00004835
     atom    7 type  1   force =     0.00000616    0.00000000   -0.00005485
     atom    8 type  1   force =     0.00000756   -0.00000756    0.00003920
     atom    9 type  1   force =     0.00000000    0.00000000    0.00006410
     atom   10 type  1   force =     0.00000000    0.00000616   -0.00005485
     atom   11 type  1   force =    -0.00000796    0.00000000   -0.00004835
     atom   12 type  1   force =    -0.00000756    0.00000756    0.00003920
     atom   13 type  1   force =     0.00000000    0.00000000    0.00007081
     atom   14 type  1   force =     0.00000000   -0.00000616   -0.00005485
     atom   15 type  1   force =    -0.00000616    0.00000000   -0.00005485
     atom   16 type  1   force =    -0.00000756   -0.00000756    0.00003920
     The non-local contrib.  to forces
     atom    1 type  1   force =     0.00000000    0.00000000   -0.21397059
     atom    2 type  1   force =     0.00000000    0.00001738    0.21399980
     atom    3 type  1   force =     0.00001738    0.00000000    0.21399980
     atom    4 type  1   force =     0.00001456    0.00001456   -0.21399517
     atom    5 type  1   force =     0.00000000    0.00000000   -0.21398787
     atom    6 type  1   force =     0.00000000   -0.00001738    0.21399980
     atom    7 type  1   force =     0.00000985    0.00000000    0.21401181
     atom    8 type  1   force =     0.00001456   -0.00001456   -0.21399517
     atom    9 type  1   force =     0.00000000    0.00000000   -0.21398787
     atom   10 type  1   force =     0.00000000    0.00000985    0.21401181
     atom   11 type  1   force =    -0.00001738    0.00000000    0.21399980
     atom   12 type  1   force =    -0.00001456    0.00001456   -0.21399517
     atom   13 type  1   force =     0.00000000    0.00000000   -0.21400488
     atom   14 type  1   force =     0.00000000   -0.00000985    0.21401181
     atom   15 type  1   force =    -0.00000985    0.00000000    0.21401181
     atom   16 type  1   force =    -0.00001456   -0.00001456   -0.21399517
     The ionic contribution  to forces
     atom    1 type  1   force =    -0.00011892   -0.00011892  -98.58527250
     atom    2 type  1   force =    -0.00011892    0.00427018   98.58162546
     atom    3 type  1   force =     0.00427018   -0.00011892   98.58162546
     atom    4 type  1   force =     0.00384040    0.00384040  -98.57727886
     atom    5 type  1   force =    -0.00011891    0.00004539  -98.58170455
     atom    6 type  1   force =    -0.00011892   -0.00419664   98.58157268
     atom    7 type  1   force =     0.00328556    0.00004539   98.57804900
     atom    8 type  1   force =     0.00384039   -0.00376686  -98.57722608
     atom    9 type  1   force =     0.00004539   -0.00011891  -98.58170455
     atom   10 type  1   force =     0.00004539    0.00328556   98.57804900
     atom   11 type  1   force =    -0.00419664   -0.00011892   98.58157268
     atom   12 type  1   force =    -0.00376686    0.00384039  -98.57722608
     atom   13 type  1   force =     0.00004539    0.00004539  -98.58090080
     atom   14 type  1   force =     0.00004539   -0.00321203   98.57799622
     atom   15 type  1   force =    -0.00321203    0.00004539   98.57799622
     atom   16 type  1   force =    -0.00376686   -0.00376686  -98.57717330
     The local contribution  to forces
     atom    1 type  1   force =    -0.00000000   -0.00000000   98.79769687
     atom    2 type  1   force =    -0.00000000   -0.00347423  -98.79395452
     atom    3 type  1   force =    -0.00347423    0.00000000  -98.79395452
     atom    4 type  1   force =    -0.00304229   -0.00304229   98.78965218
     atom    5 type  1   force =    -0.00000000    0.00077497   98.79415067
     atom    6 type  1   force =     0.00000000    0.00502419  -98.79395452
     atom    7 type  1   force =    -0.00248447    0.00077497  -98.79039427
     atom    8 type  1   force =    -0.00304229    0.00459224   98.78965218
     atom    9 type  1   force =     0.00077497   -0.00000000   98.79415067
     atom   10 type  1   force =     0.00077497   -0.00248447  -98.79039427
     atom   11 type  1   force =     0.00502419    0.00000000  -98.79395452
     atom   12 type  1   force =     0.00459224   -0.00304229   98.78965218
     atom   13 type  1   force =     0.00077498    0.00077498   98.79336830
     atom   14 type  1   force =     0.00077497    0.00403443  -98.79039427
     atom   15 type  1   force =     0.00403443    0.00077497  -98.79039427
     atom   16 type  1   force =     0.00459224    0.00459224   98.78965217
     The core correction contribution to forces
     atom    1 type  1   force =    -0.00000000   -0.00000000    0.00154490
     atom    2 type  1   force =     0.00000000    0.00000043   -0.00154463
     atom    3 type  1   force =     0.00000043    0.00000000   -0.00154463
     atom    4 type  1   force =     0.00000045    0.00000045    0.00154394
     atom    5 type  1   force =    -0.00000000    0.00000050    0.00154488
     atom    6 type  1   force =    -0.00000000    0.00000057   -0.00154463
     atom    7 type  1   force =     0.00000047    0.00000050   -0.00154460
     atom    8 type  1   force =     0.00000045    0.00000056    0.00154394
     atom    9 type  1   force =     0.00000050   -0.00000000    0.00154488
     atom   10 type  1   force =     0.00000050    0.00000047   -0.00154460
     atom   11 type  1   force =     0.00000057   -0.00000000   -0.00154463
     atom   12 type  1   force =     0.00000056    0.00000045    0.00154394
     atom   13 type  1   force =     0.00000050    0.00000050    0.00154491
     atom   14 type  1   force =     0.00000050    0.00000054   -0.00154460
     atom   15 type  1   force =     0.00000054    0.00000050   -0.00154460
     atom   16 type  1   force =     0.00000056    0.00000056    0.00154394
     The Hubbard contrib.    to forces
     atom    1 type  1   force =     0.00000000    0.00000000    0.00000000
     atom    2 type  1   force =     0.00000000    0.00000000    0.00000000
     atom    3 type  1   force =     0.00000000    0.00000000    0.00000000
     atom    4 type  1   force =     0.00000000    0.00000000    0.00000000
     atom    5 type  1   force =     0.00000000    0.00000000    0.00000000
     atom    6 type  1   force =     0.00000000    0.00000000    0.00000000
     atom    7 type  1   force =     0.00000000    0.00000000    0.00000000
     atom    8 type  1   force =     0.00000000    0.00000000    0.00000000
     atom    9 type  1   force =     0.00000000    0.00000000    0.00000000
     atom   10 type  1   force =     0.00000000    0.00000000    0.00000000
     atom   11 type  1   force =     0.00000000    0.00000000    0.00000000
     atom   12 type  1   force =     0.00000000    0.00000000    0.00000000
     atom   13 type  1   force =     0.00000000    0.00000000    0.00000000
     atom   14 type  1   force =     0.00000000    0.00000000    0.00000000
     atom   15 type  1   force =     0.00000000    0.00000000    0.00000000
     atom   16 type  1   force =     0.00000000    0.00000000    0.00000000
     The SCF correction term to forces
     atom    1 type  1   force =    -0.00000000   -0.00000000    0.00006000
     atom    2 type  1   force =    -0.00000000    0.00000644   -0.00014639
     atom    3 type  1   force =     0.00000644   -0.00000000   -0.00014639
     atom    4 type  1   force =     0.00000670    0.00000670    0.00006603
     atom    5 type  1   force =    -0.00000000   -0.00000000    0.00006266
     atom    6 type  1   force =    -0.00000000   -0.00000644   -0.00014639
     atom    7 type  1   force =     0.00000701   -0.00000000   -0.00014870
     atom    8 type  1   force =     0.00000670   -0.00000670    0.00006603
     atom    9 type  1   force =    -0.00000000   -0.00000000    0.00006266
     atom   10 type  1   force =    -0.00000000    0.00000701   -0.00014870
     atom   11 type  1   force =    -0.00000644   -0.00000000   -0.00014639
     atom   12 type  1   force =    -0.00000670    0.00000670    0.00006603
     atom   13 type  1   force =    -0.00000000   -0.00000000    0.00006497
     atom   14 type  1   force =    -0.00000000   -0.00000701   -0.00014870
     atom   15 type  1   force =    -0.00000701   -0.00000000   -0.00014870
     atom   16 type  1   force =    -0.00000670   -0.00000670    0.00006604

     Total force =     0.000212     Total SCF correction =     0.000456
     SCF correction compared to forces is large: reduce conv_thr to get better values

     Computing stress (Cartesian axis) and pressure

     negative rho (up, down):  4.511E-03 0.000E+00
          total   stress  (Ry/bohr**3)                   (kbar)     P=      -38.91
  -0.00029814   0.00000000   0.00000000          -43.86        0.00        0.00
   0.00000000  -0.00029814   0.00000000            0.00      -43.86        0.00
   0.00000000   0.00000000  -0.00019720            0.00        0.00      -29.01

     kinetic stress (kbar)  15880.22      0.00      0.00
                                0.00  15880.22      0.00
                                0.00      0.00  15951.74

     local   stress (kbar)-251685.46     -0.00      0.00
                               -0.00-251685.46      0.00
                                0.00      0.00 251485.86

     nonloc. stress (kbar)   1858.88      0.00      0.00
                                0.00   1858.88      0.00
                                0.00      0.00   1840.14

     hartree stress (kbar) 132204.74      0.00     -0.00
                                0.00 132204.74     -0.00
                               -0.00     -0.00-113198.46

     exc-cor stress (kbar)  -2862.94     -0.00      0.00
                               -0.00  -2862.94      0.00
                                0.00      0.00  -2868.79

     corecor stress (kbar)   -387.77      0.00      0.00
                                0.00   -387.77      0.00
                                0.00      0.00   -387.73

     ewald   stress (kbar) 104948.48     -0.00     -0.00
                               -0.00 104948.48     -0.00
                               -0.00     -0.00-152851.77

     hubbard stress (kbar)      0.00      0.00      0.00
                                0.00      0.00      0.00
                                0.00      0.00      0.00

     DFT-D   stress (kbar)      0.00      0.00      0.00
                                0.00      0.00      0.00
                                0.00      0.00      0.00

     XDM     stress (kbar)      0.00      0.00      0.00
                                0.00      0.00      0.00
                                0.00      0.00      0.00

     dft-nl  stress (kbar)      0.00      0.00      0.00
                                0.00      0.00      0.00
                                0.00      0.00      0.00

     TS-vdW  stress (kbar)      0.00      0.00      0.00
                                0.00      0.00      0.00
                                0.00      0.00      0.00

     Energy error            =      2.1E-05
     Gradient error          =      7.1E-05

     bfgs converged in   7 scf cycles and   6 bfgs steps
     (criteria: energy <  1.0E-04 Ry, force <  1.0E-03 Ry/Bohr)

     End of BFGS Geometry Optimization

     Final energy   =   -4729.2933730437 Ry

     File ./surface.bfgs deleted, as requested
Begin final coordinates

ATOMIC_POSITIONS (angstrom)
Ag            0.0000000000        0.0000000000        0.0422014500
Ag            0.0000000000        2.0802221774        2.0380331049
Ag            2.0802221774        0.0000000000        2.0380331049
Ag            2.0802214771        2.0802214771        0.0422903802
Ag            0.0000000000        4.1605480000        0.0422176035
Ag            0.0000000000        6.2408738226        2.0380331049
Ag            2.0802366290        4.1605480000        2.0380142103
Ag            2.0802214771        6.2408745229        0.0422903802
Ag            4.1605480000        0.0000000000        0.0422176035
Ag            4.1605480000        2.0802366290        2.0380142103
Ag            6.2408738226        0.0000000000        2.0380331049
Ag            6.2408745229        2.0802214771        0.0422903802
Ag            4.1605480000        4.1605480000        0.0422045614
Ag            4.1605480000        6.2408593710        2.0380142103
Ag            6.2408593710        4.1605480000        2.0380142103
Ag            6.2408745229        6.2408745229        0.0422903802
End final coordinates

     Writing output data file ./surface.save/

     General routines

     Parallel routines

   This run was terminated on:   0:32:28   6Dec2021

   JOB DONE.