     Program PWSCF v.6.7MaX starts on  6Dec2021 at  0:25:25

     R & G space division:  proc/nbgrp/npool/nimage =      32
     Reading input from ag_surface.100.k.qe.6_6_1.in

     Current dimensions of program PWSCF are:
     Max number of different atomic species (ntypx) = 10
     Max number of k-points (npk) =  40000
     Max angular momentum in pseudopotentials (lmaxx) =  3

     Found symmetry operation: I + (  0.2500  0.2500  0.0000)
     This is a supercell, fractional translations are disabled

     bravais-lattice index     =            8
     lattice parameter (alat)  =      15.7246  a.u.
     unit-cell volume          =    6616.6507 (a.u.)^3
     number of atoms/cell      =           16
     number of atomic types    =            1
     number of electrons       =       304.00
     number of Kohn-Sham states=          182
     kinetic-energy cutoff     =      30.0000  Ry
     charge density cutoff     =     300.0000  Ry
     scf convergence threshold =      1.0E-06
     mixing beta               =       0.3000
     number of iterations used =            8  plain     mixing
     energy convergence thresh.=      1.0E-04
     force convergence thresh. =      1.0E-03
     Exchange-correlation=  SLA  PW   PBX  PBC
                           (   1   4   3   4   0   0   0)
     nstep                     =           50

     celldm(1)=  15.724600  celldm(2)=   1.000000  celldm(3)=   1.701764
     celldm(4)=   0.000000  celldm(5)=   0.000000  celldm(6)=   0.000000

     crystal axes: (cart. coord. in units of alat)
               a(1) = (   1.000000   0.000000   0.000000 )
               a(2) = (   0.000000   1.000000   0.000000 )
               a(3) = (   0.000000   0.000000   1.701764 )

     reciprocal axes: (cart. coord. in units 2 pi/alat)
               b(1) = (  1.000000  0.000000  0.000000 )
               b(2) = (  0.000000  1.000000  0.000000 )
               b(3) = (  0.000000  0.000000  0.587625 )

     PseudoPot. # 1 for Ag read from file:
     /expanse/lustre/projects/csd622/tpascal/nano110/qe/pseudo/ag_pbe_v1.4.uspp.F.UPF
     MD5 check sum: d66d668201baa78d5eb5b04ef7011058
     Pseudo is Ultrasoft + core correction, Zval = 19.0
     Generated by new atomic code, or converted to UPF format
     Using radial grid of  887 points,  6 beta functions with:
                l(1) =   0
                l(2) =   0
                l(3) =   1
                l(4) =   1
                l(5) =   2
                l(6) =   2
     Q(r) pseudized with  6 coefficients,  rinner =    1.300   1.300   1.300
                                                       1.300   1.300

     atomic species   valence    mass     pseudopotential
        Ag            19.00   107.86820     Ag( 1.00)

      8 Sym. Ops. (no inversion) found

                                    s                        frac. trans.

      isym =  1     identity

 cryst.   s( 1) = (     1          0          0      )
                  (     0          1          0      )
                  (     0          0          1      )

 cart.    s( 1) = (  1.0000000  0.0000000  0.0000000 )
                  (  0.0000000  1.0000000  0.0000000 )
                  (  0.0000000  0.0000000  1.0000000 )

      isym =  2     180 deg rotation - cart. axis [0,0,1]

[...]

      isym =  4      90 deg rotation - cart. axis [0,0,1]

[...]

      isym =  5     inv. 180 deg rotation - cart. axis [0,1,0]

[...]

      isym =  8     inv. 180 deg rotation - cart. axis [1,-1,0]

 cryst.   s( 8) = (     0          1          0      )
                  (     1          0          0      )
                  (     0          0          1      )

 cart.    s( 8) = (  0.0000000  1.0000000  0.0000000 )
                  (  1.0000000  0.0000000  0.0000000 )
                  (  0.0000000  0.0000000  1.0000000 )

     point group C_4v (4mm)
     there are  5 classes
     the character table:

       E     2C4   C2    2s_v  2s_d
A_1    1.00  1.00  1.00  1.00  1.00
A_2    1.00  1.00  1.00 -1.00 -1.00
B_1    1.00 -1.00  1.00  1.00 -1.00
B_2    1.00 -1.00  1.00 -1.00  1.00
E      2.00  0.00 -2.00  0.00  0.00

     the symmetry operations in each class and the name of the first element:

     E        1
          identity
     2C4      3    4
           90 deg rotation - cart. axis [0,0,-1]
     C2       2
          180 deg rotation - cart. axis [0,0,1]
     2s_v     5    6
          inv. 180 deg rotation - cart. axis [0,1,0]
     2s_d     7    8
          inv. 180 deg rotation - cart. axis [1,1,0]

   Cartesian axes

     site n.     atom                  positions (alat units)
         1           Ag  tau(   1) = (   0.0000000   0.0000000   0.0000000  )
         2           Ag  tau(   2) = (   0.0000000   0.2499999   0.2499999  )
         3           Ag  tau(   3) = (   0.2499999   0.0000000   0.2499999  )
         4           Ag  tau(   4) = (   0.2499999   0.2499999   0.0000000  )
         5           Ag  tau(   5) = (   0.0000000   0.4999998   0.0000000  )
         6           Ag  tau(   6) = (   0.0000000   0.7499996   0.2499999  )
         7           Ag  tau(   7) = (   0.2499999   0.4999998   0.2499999  )
         8           Ag  tau(   8) = (   0.2499999   0.7499996   0.0000000  )
         9           Ag  tau(   9) = (   0.4999998   0.0000000   0.0000000  )
        10           Ag  tau(  10) = (   0.4999998   0.2499999   0.2499999  )
        11           Ag  tau(  11) = (   0.7499996   0.0000000   0.2499999  )
        12           Ag  tau(  12) = (   0.7499996   0.2499999   0.0000000  )
        13           Ag  tau(  13) = (   0.4999998   0.4999998   0.0000000  )
        14           Ag  tau(  14) = (   0.4999998   0.7499996   0.2499999  )
        15           Ag  tau(  15) = (   0.7499996   0.4999998   0.2499999  )
        16           Ag  tau(  16) = (   0.7499996   0.7499996   0.0000000  )

   Crystallographic axes

     site n.     atom                  positions (cryst. coord.)
         1           Ag  tau(   1) = (  0.0000000  0.0000000  0.0000000  )
         2           Ag  tau(   2) = (  0.0000000  0.2499999  0.1469063  )
         3           Ag  tau(   3) = (  0.2499999  0.0000000  0.1469063  )
         4           Ag  tau(   4) = (  0.2499999  0.2499999  0.0000000  )
         5           Ag  tau(   5) = (  0.0000000  0.4999998  0.0000000  )
         6           Ag  tau(   6) = (  0.0000000  0.7499996  0.1469063  )
         7           Ag  tau(   7) = (  0.2499999  0.4999998  0.1469063  )
         8           Ag  tau(   8) = (  0.2499999  0.7499996  0.0000000  )
         9           Ag  tau(   9) = (  0.4999998  0.0000000  0.0000000  )
        10           Ag  tau(  10) = (  0.4999998  0.2499999  0.1469063  )
        11           Ag  tau(  11) = (  0.7499996  0.0000000  0.1469063  )
        12           Ag  tau(  12) = (  0.7499996  0.2499999  0.0000000  )
        13           Ag  tau(  13) = (  0.4999998  0.4999998  0.0000000  )
        14           Ag  tau(  14) = (  0.4999998  0.7499996  0.1469063  )
        15           Ag  tau(  15) = (  0.7499996  0.4999998  0.1469063  )
        16           Ag  tau(  16) = (  0.7499996  0.7499996  0.0000000  )

     number of k points=    10  Gaussian smearing, width (Ry)=  0.0030
                       cart. coord. in units 2pi/alat
        k(    1) = (   0.0000000   0.0000000   0.0000000), wk =   0.0555556
        k(    2) = (   0.0000000   0.1666667   0.0000000), wk =   0.2222222
        k(    3) = (   0.0000000   0.3333333   0.0000000), wk =   0.2222222
        k(    4) = (   0.0000000  -0.5000000   0.0000000), wk =   0.1111111
        k(    5) = (   0.1666667   0.1666667   0.0000000), wk =   0.2222222
        k(    6) = (   0.1666667   0.3333333   0.0000000), wk =   0.4444444
        k(    7) = (   0.1666667  -0.5000000   0.0000000), wk =   0.2222222
        k(    8) = (   0.3333333   0.3333333   0.0000000), wk =   0.2222222
        k(    9) = (   0.3333333  -0.5000000   0.0000000), wk =   0.2222222
        k(   10) = (  -0.5000000  -0.5000000   0.0000000), wk =   0.0555556

                       cryst. coord.
        k(    1) = (   0.0000000   0.0000000   0.0000000), wk =   0.0555556
        k(    2) = (   0.0000000   0.1666667   0.0000000), wk =   0.2222222
        k(    3) = (   0.0000000   0.3333333   0.0000000), wk =   0.2222222
        k(    4) = (   0.0000000  -0.5000000   0.0000000), wk =   0.1111111
        k(    5) = (   0.1666667   0.1666667   0.0000000), wk =   0.2222222
        k(    6) = (   0.1666667   0.3333333   0.0000000), wk =   0.4444444
        k(    7) = (   0.1666667  -0.5000000   0.0000000), wk =   0.2222222
        k(    8) = (   0.3333333   0.3333333   0.0000000), wk =   0.2222222
        k(    9) = (   0.3333333  -0.5000000   0.0000000), wk =   0.2222222
        k(   10) = (  -0.5000000  -0.5000000   0.0000000), wk =   0.0555556

     Initial potential from superposition of free atoms

     starting charge  295.99924, renormalised to  304.00000

     negative rho (up, down):  5.356E-03 0.000E+00
     Starting wfcs are  208 randomized atomic wfcs

     Self-consistent Calculation

     iteration #  1     ecut=    30.00 Ry     beta= 0.30
     Davidson diagonalization with overlap
     ethr =  1.00E-02,  avg # of iterations =  7.6

     negative rho (up, down):  1.351E-04 0.000E+00

     total energy              =   -4722.91498185 Ry
     estimated scf accuracy    <      27.59467709 Ry

[...]

     End of self-consistent calculation

          k = 0.0000 0.0000 0.0000 ( 18383 PWs)   bands (ev):

   -89.9354 -89.9289 -89.9289 -89.9289 -89.9289 -89.9267 -89.9266 -89.9266
   -89.9266 -89.9266 -89.9245 -89.9244 -89.9244 -89.9244 -89.9223 -89.9222
   -53.4524 -53.4524 -53.4499 -53.4499 -53.4499 -53.4499 -53.4209 -53.4209
   -53.4209 -53.4209 -53.4188 -53.4188 -53.4188 -53.4188 -53.4163 -53.4155
   -53.4155 -53.4073 -53.4073 -53.4073 -53.4073 -53.3881 -53.3881 -53.3881
   -53.3881 -53.3849 -53.3849 -53.3817 -53.3817 -53.3816 -53.3816 -53.3734
   -53.3734 -53.3699 -53.3699 -53.3699 -53.3699 -53.3673 -53.3672 -53.3672
   -53.3672 -53.3609 -53.3609 -53.3568 -53.3568 -53.3568 -53.3568 -53.3544
    -4.2192  -3.7387  -3.7082  -3.5974  -3.5974  -3.5276  -3.5276  -3.5276
    -3.5276  -3.4002  -3.4002  -3.0986  -3.0986  -3.0986  -3.0986  -3.0940
    -3.0940  -3.0939  -3.0939  -3.0489  -2.9792  -2.9792  -2.9792  -2.9792
    -2.7733  -2.7733  -2.7733  -2.7733  -2.6450  -2.6449  -2.6449  -2.6449
    -2.3738  -2.3738  -2.3738  -2.3738  -2.3100  -2.3100  -2.3100  -2.3100
    -2.2446  -2.2446  -2.2446  -2.2446  -2.2395  -2.2395  -2.2240  -2.2240
    -2.2240  -2.2240  -2.0637  -1.8500  -1.8500  -1.8500  -1.8500  -1.8033
    -1.8033  -1.8033  -1.8033  -1.7665  -1.7665  -1.6384  -1.6384  -1.6384
    -1.6384  -1.5730  -1.4972  -1.4972  -1.3990  -1.3990  -1.3990  -1.3990
    -1.3964  -1.3964  -1.3964  -1.3964  -1.2945  -1.2945  -1.2211  -0.8459
    -0.8459  -0.5770  -0.5770  -0.5769  -0.5769   0.1905   1.8979   1.8980
     1.8980   1.8980   2.5306   2.5306   2.5306   2.5306   3.0477   4.8019
     4.8019   4.8019   4.8020   5.1517   5.1517   5.7266   5.9304   5.9304
     5.9305   5.9305   6.1347   8.0161   8.0161   8.0163   8.0163   8.1653
     8.1653   8.1653   8.1654   8.6674   8.6675   8.6679

[...]
   -53.4123 -53.4123 -53.4122 -53.4122 -53.4121 -53.4121 -53.4121 -53.4120
   -53.3996 -53.3996 -53.3996 -53.3996 -53.3934 -53.3933 -53.3933 -53.3932
    -3.6897  -3.6896  -3.6896  -3.6895  -3.6744  -3.6743  -3.6743  -3.6742
    -3.4090  -3.4090  -3.4089  -3.4089  -3.4089  -3.4089  -3.4087  -3.4087
    -3.1951  -3.1951  -3.1950  -3.1950  -3.1950  -3.1950  -3.1948  -3.1948
    -3.1227  -3.1225  -3.1225  -3.1224  -2.5584  -2.5583  -2.5583  -2.5583
    -2.4479  -2.4478  -2.4478  -2.4478  -2.3453  -2.3452  -2.3452  -2.3452
    -2.1807  -2.1807  -2.1807  -2.1807  -2.1807  -2.1807  -2.1807  -2.1807
    -2.1002  -2.1001  -2.1001  -2.1000  -1.9792  -1.9791  -1.9791  -1.9790
    -1.6974  -1.6974  -1.6974  -1.6974  -1.6973  -1.6973  -1.6973  -1.6973
    -1.5677  -1.5676  -1.5676  -1.5675  -1.4396  -1.4395  -1.4395  -1.4395
    -1.3648  -1.3648  -1.3648  -1.3648  -1.3648  -1.3648  -1.3648  -1.3648
    -1.2108  -1.2107  -1.2107  -1.2107   1.3822   1.3823   1.3823   1.3824
     3.1043   3.1043   3.1044   3.1044   3.1045   3.1045   3.1046   3.1046
     4.6737   4.6738   4.6738   4.6739   6.0792   6.0792   6.0792   6.0792
     6.0793   6.0793   6.0794   6.0794   6.8864   6.8865   6.8865   6.8865
     7.1737   7.1737   7.1737   7.1738   8.1397   8.1398

     occupation numbers
     1.0000   1.0000   1.0000   1.0000   1.0000   1.0000   1.0000   1.0000
     1.0000   1.0000   1.0000   1.0000   1.0000   1.0000   1.0000   1.0000
     1.0000   1.0000   1.0000   1.0000   1.0000   1.0000   1.0000   1.0000
     1.0000   1.0000   1.0000   1.0000   1.0000   1.0000   1.0000   1.0000
     1.0000   1.0000   1.0000   1.0000   1.0000   1.0000   1.0000   1.0000
     1.0000   1.0000   1.0000   1.0000   1.0000   1.0000   1.0000   1.0000
     1.0000   1.0000   1.0000   1.0000   1.0000   1.0000   1.0000   1.0000
     1.0000   1.0000   1.0000   1.0000   1.0000   1.0000   1.0000   1.0000
     1.0000   1.0000   1.0000   1.0000   1.0000   1.0000   1.0000   1.0000
     1.0000   1.0000   1.0000   1.0000   1.0000   1.0000   1.0000   1.0000
     1.0000   1.0000   1.0000   1.0000   1.0000   1.0000   1.0000   1.0000
     1.0000   1.0000   1.0000   1.0000   1.0000   1.0000   1.0000   1.0000
     1.0000   1.0000   1.0000   1.0000   1.0000   1.0000   1.0000   1.0000
     1.0000   1.0000   1.0000   1.0000   1.0000   1.0000   1.0000   1.0000
     1.0000   1.0000   1.0000   1.0000   1.0000   1.0000   1.0000   1.0000
     1.0000   1.0000   1.0000   1.0000   1.0000   1.0000   1.0000   1.0000
     1.0000   1.0000   1.0000   1.0000   1.0000   1.0000   1.0000   1.0000
     1.0000   1.0000   1.0000   1.0000   1.0000   1.0000   1.0000   1.0000
     1.0000   1.0000   1.0000   1.0000   1.0000   1.0000   1.0000   1.0000
     0.0000   0.0000   0.0000   0.0000   0.0000   0.0000   0.0000   0.0000
     0.0000   0.0000   0.0000   0.0000   0.0000   0.0000   0.0000   0.0000
     0.0000   0.0000   0.0000   0.0000   0.0000   0.0000   0.0000   0.0000
     0.0000   0.0000   0.0000   0.0000   0.0000   0.0000

     the Fermi energy is     1.5584 ev

!    total energy              =   -4729.29735232 Ry
     estimated scf accuracy    <          1.8E-09 Ry
     smearing contrib. (-TS)   =      -0.00031398 Ry
     internal energy E=F+TS    =   -4729.29703834 Ry

     The total energy is F=E-TS. E is the sum of the following terms:
     one-electron contribution =  -13633.06767687 Ry
     hartree contribution      =    6801.03700763 Ry
     xc contribution           =    -462.81372555 Ry
     ewald contribution        =    2565.54735645 Ry

     convergence has been achieved in   6 iterations

     negative rho (up, down):  4.512E-03 0.000E+00

     Forces acting on atoms (cartesian axes, Ry/au):

     atom    1 type  1   force =     0.00000000    0.00000000    0.00004777
     atom    2 type  1   force =     0.00000000    0.00001489   -0.00004138
     atom    3 type  1   force =     0.00001489    0.00000000   -0.00004138
     atom    4 type  1   force =     0.00001455    0.00001455    0.00003552
     atom    5 type  1   force =     0.00000000    0.00000000    0.00005921
     atom    6 type  1   force =     0.00000000   -0.00001489   -0.00004138
     atom    7 type  1   force =     0.00001514    0.00000000   -0.00005335
     atom    8 type  1   force =     0.00001455   -0.00001455    0.00003552
     atom    9 type  1   force =     0.00000000    0.00000000    0.00005921
     atom   10 type  1   force =     0.00000000    0.00001514   -0.00005335
     atom   11 type  1   force =    -0.00001489    0.00000000   -0.00004138
     atom   12 type  1   force =    -0.00001455    0.00001455    0.00003552
     atom   13 type  1   force =     0.00000000    0.00000000    0.00007063
     atom   14 type  1   force =     0.00000000   -0.00001514   -0.00005335
     atom   15 type  1   force =    -0.00001514    0.00000000   -0.00005335
     atom   16 type  1   force =    -0.00001455   -0.00001455    0.00003552
     The non-local contrib.  to forces
     atom    1 type  1   force =     0.00000000    0.00000000   -0.21355289
     atom    2 type  1   force =     0.00000000    0.00001492    0.21358606
     atom    3 type  1   force =     0.00001492    0.00000000    0.21358606
     atom    4 type  1   force =     0.00001452    0.00001452   -0.21357066
     atom    5 type  1   force =     0.00000000    0.00000000   -0.21356173
     atom    6 type  1   force =     0.00000000   -0.00001492    0.21358606
     atom    7 type  1   force =     0.00001488    0.00000000    0.21359461
     atom    8 type  1   force =     0.00001452   -0.00001452   -0.21357066
     atom    9 type  1   force =     0.00000000    0.00000000   -0.21356173
     atom   10 type  1   force =     0.00000000    0.00001488    0.21359461
     atom   11 type  1   force =    -0.00001492    0.00000000    0.21358606
     atom   12 type  1   force =    -0.00001452    0.00001452   -0.21357066
     atom   13 type  1   force =     0.00000000    0.00000000   -0.21357169
     atom   14 type  1   force =     0.00000000   -0.00001488    0.21359461
     atom   15 type  1   force =    -0.00001488    0.00000000    0.21359461
     atom   16 type  1   force =    -0.00001452   -0.00001452   -0.21357066
     The ionic contribution  to forces
     atom    1 type  1   force =    -0.00011891   -0.00011891  -98.58285019
     atom    2 type  1   force =    -0.00011891    0.00405095   98.57952940
     atom    3 type  1   force =     0.00405095   -0.00011891   98.57952940
     atom    4 type  1   force =     0.00406703    0.00406703  -98.57627507
     atom    5 type  1   force =    -0.00011890    0.00004539  -98.58031101
     atom    6 type  1   force =    -0.00011891   -0.00397742   98.57947663
     atom    7 type  1   force =     0.00409494    0.00004539   98.57722240
     atom    8 type  1   force =     0.00406703   -0.00399350  -98.57622230
     atom    9 type  1   force =     0.00004539   -0.00011890  -98.58031101
     atom   10 type  1   force =     0.00004539    0.00409494   98.57722240
     atom   11 type  1   force =    -0.00397742   -0.00011891   98.57947663
     atom   12 type  1   force =    -0.00399350    0.00406703  -98.57622230
     atom   13 type  1   force =     0.00004538    0.00004538  -98.57843473
     atom   14 type  1   force =     0.00004539   -0.00402142   98.57716963
     atom   15 type  1   force =    -0.00402142    0.00004539   98.57716963
     atom   16 type  1   force =    -0.00399350   -0.00399350  -98.57616953
     The local contribution  to forces
     atom    1 type  1   force =    -0.00000000   -0.00000000   98.79485926
     atom    2 type  1   force =    -0.00000000   -0.00327186  -98.79155859
     atom    3 type  1   force =    -0.00327186   -0.00000000  -98.79155859
     atom    4 type  1   force =    -0.00329106   -0.00329106   98.78822387
     atom    5 type  1   force =    -0.00000000    0.00077498   98.79233069
     atom    6 type  1   force =     0.00000000    0.00482183  -98.79155859
     atom    7 type  1   force =    -0.00331687    0.00077498  -98.78925797
     atom    8 type  1   force =    -0.00329106    0.00484103   98.78822386
     atom    9 type  1   force =     0.00077498   -0.00000000   98.79233069
     atom   10 type  1   force =     0.00077498   -0.00331687  -98.78925797
     atom   11 type  1   force =     0.00482183   -0.00000000  -98.79155859
     atom   12 type  1   force =     0.00484103   -0.00329106   98.78822386
     atom   13 type  1   force =     0.00077499    0.00077499   98.79045638
     atom   14 type  1   force =     0.00077498    0.00486685  -98.78925797
     atom   15 type  1   force =     0.00486685    0.00077498  -98.78925797
     atom   16 type  1   force =     0.00484103    0.00484103   98.78822386
     The core correction contribution to forces
     atom    1 type  1   force =    -0.00000000   -0.00000000    0.00154312
     atom    2 type  1   force =    -0.00000000    0.00000046   -0.00154278
     atom    3 type  1   force =     0.00000046   -0.00000000   -0.00154278
     atom    4 type  1   force =     0.00000047    0.00000047    0.00154214
     atom    5 type  1   force =    -0.00000000    0.00000050    0.00154308
     atom    6 type  1   force =    -0.00000000    0.00000054   -0.00154278
     atom    7 type  1   force =     0.00000046    0.00000050   -0.00154274
     atom    8 type  1   force =     0.00000047    0.00000054    0.00154214
     atom    9 type  1   force =     0.00000050   -0.00000000    0.00154308
     atom   10 type  1   force =     0.00000050    0.00000046   -0.00154274
     atom   11 type  1   force =     0.00000054   -0.00000000   -0.00154278
     atom   12 type  1   force =     0.00000054    0.00000047    0.00154214
     atom   13 type  1   force =     0.00000050    0.00000050    0.00154306
     atom   14 type  1   force =     0.00000050    0.00000055   -0.00154274
     atom   15 type  1   force =     0.00000055    0.00000050   -0.00154274
     atom   16 type  1   force =     0.00000054    0.00000054    0.00154214
     The Hubbard contrib.    to forces
     atom    1 type  1   force =     0.00000000    0.00000000    0.00000000
     atom    2 type  1   force =     0.00000000    0.00000000    0.00000000
     atom    3 type  1   force =     0.00000000    0.00000000    0.00000000
     atom    4 type  1   force =     0.00000000    0.00000000    0.00000000
     atom    5 type  1   force =     0.00000000    0.00000000    0.00000000
     atom    6 type  1   force =     0.00000000    0.00000000    0.00000000
     atom    7 type  1   force =     0.00000000    0.00000000    0.00000000
     atom    8 type  1   force =     0.00000000    0.00000000    0.00000000
     atom    9 type  1   force =     0.00000000    0.00000000    0.00000000
     atom   10 type  1   force =     0.00000000    0.00000000    0.00000000
     atom   11 type  1   force =     0.00000000    0.00000000    0.00000000
     atom   12 type  1   force =     0.00000000    0.00000000    0.00000000
     atom   13 type  1   force =     0.00000000    0.00000000    0.00000000
     atom   14 type  1   force =     0.00000000    0.00000000    0.00000000
     atom   15 type  1   force =     0.00000000    0.00000000    0.00000000
     atom   16 type  1   force =     0.00000000    0.00000000    0.00000000
     The SCF correction term to forces
     atom    1 type  1   force =    -0.00000000   -0.00000000    0.00006069
     atom    2 type  1   force =    -0.00000000    0.00003267   -0.00001686
     atom    3 type  1   force =     0.00003267   -0.00000000   -0.00001686
     atom    4 type  1   force =     0.00003585    0.00003585    0.00007469
     atom    5 type  1   force =    -0.00000000   -0.00000000    0.00007039
     atom    6 type  1   force =    -0.00000000   -0.00003267   -0.00001686
     atom    7 type  1   force =     0.00003398   -0.00000000   -0.00003104
     atom    8 type  1   force =     0.00003585   -0.00003585    0.00007469
     atom    9 type  1   force =    -0.00000000   -0.00000000    0.00007039
     atom   10 type  1   force =    -0.00000000    0.00003398   -0.00003104
     atom   11 type  1   force =    -0.00003267   -0.00000000   -0.00001686
     atom   12 type  1   force =    -0.00003585    0.00003585    0.00007469
     atom   13 type  1   force =    -0.00000000   -0.00000000    0.00008983
     atom   14 type  1   force =    -0.00000000   -0.00003398   -0.00003105
     atom   15 type  1   force =    -0.00003398   -0.00000000   -0.00003105
     atom   16 type  1   force =    -0.00003585   -0.00003585    0.00007470

     Total force =     0.000203     Total SCF correction =     0.000261
     SCF correction compared to forces is large: reduce conv_thr to get better values

     Computing stress (Cartesian axis) and pressure

     negative rho (up, down):  4.512E-03 0.000E+00
          total   stress  (Ry/bohr**3)                   (kbar)     P=      -38.86
  -0.00029763   0.00000000   0.00000000          -43.78        0.00        0.00
   0.00000000  -0.00029763   0.00000000            0.00      -43.78        0.00
   0.00000000   0.00000000  -0.00019721            0.00        0.00      -29.01

     kinetic stress (kbar)  15880.19      0.00      0.00
                                0.00  15880.19      0.00
                                0.00      0.00  15951.75

     local   stress (kbar)-251670.60     -0.00      0.00
                               -0.00-251670.60      0.00
                                0.00      0.00 251469.38

     nonloc. stress (kbar)   1858.93      0.00      0.00
                                0.00   1858.93      0.00
                                0.00      0.00   1840.06

     hartree stress (kbar) 132197.31      0.00     -0.00
                                0.00 132197.31      0.00
                               -0.00      0.00-113190.15

     exc-cor stress (kbar)  -2862.95     -0.00      0.00
                               -0.00  -2862.95      0.00
                                0.00      0.00  -2868.80

     corecor stress (kbar)   -387.77      0.00      0.00
                                0.00   -387.77      0.00
                                0.00      0.00   -387.72

     ewald   stress (kbar) 104941.11     -0.00     -0.00
                               -0.00 104941.11     -0.00
                               -0.00     -0.00-152843.53

     hubbard stress (kbar)      0.00      0.00      0.00
                                0.00      0.00      0.00
                                0.00      0.00      0.00

     DFT-D   stress (kbar)      0.00      0.00      0.00
                                0.00      0.00      0.00
                                0.00      0.00      0.00

     XDM     stress (kbar)      0.00      0.00      0.00
                                0.00      0.00      0.00
                                0.00      0.00      0.00

     dft-nl  stress (kbar)      0.00      0.00      0.00
                                0.00      0.00      0.00
                                0.00      0.00      0.00

     TS-vdW  stress (kbar)      0.00      0.00      0.00
                                0.00      0.00      0.00
                                0.00      0.00      0.00

     Energy error            =      9.9E-06
     Gradient error          =      7.1E-05

     bfgs converged in   7 scf cycles and   6 bfgs steps
     (criteria: energy <  1.0E-04 Ry, force <  1.0E-03 Ry/Bohr)

     End of BFGS Geometry Optimization

     Final energy   =   -4729.2973523160 Ry

     File ./surface.bfgs deleted, as requested
Begin final coordinates

ATOMIC_POSITIONS (angstrom)
Ag            0.0000000000        0.0000000000        0.0421246500
Ag            0.0000000000        2.0802248239        2.0381183433
Ag            2.0802248239        0.0000000000        2.0381183433
Ag            2.0802249239        2.0802249239        0.0421852431
Ag            0.0000000000        4.1605480000        0.0421221955
Ag            0.0000000000        6.2408711761        2.0381183433
Ag            2.0802257305        4.1605480000        2.0381250768
Ag            2.0802249239        6.2408710761        0.0421852431
Ag            4.1605480000        0.0000000000        0.0421221955
Ag            4.1605480000        2.0802257305        2.0381250768
Ag            6.2408711761        0.0000000000        2.0381183433
Ag            6.2408710761        2.0802249239        0.0421852431
Ag            4.1605480000        4.1605480000        0.0421083062
Ag            4.1605480000        6.2408702695        2.0381250768
Ag            6.2408702695        4.1605480000        2.0381250768
Ag            6.2408710761        6.2408710761        0.0421852431
End final coordinates

     Writing output data file ./surface.save/

     General routines

     Parallel routines

   This run was terminated on:   0:30: 1   6Dec2021

   JOB DONE.