     Program PWSCF v.6.7MaX starts on 10Dec2021 at  3:54:12

     R & G space division:  proc/nbgrp/npool/nimage =      16
     Reading input from au_surface.100.qe.7656471.1_1_3.in

     Current dimensions of program PWSCF are:
     Max number of different atomic species (ntypx) = 10
     Max number of k-points (npk) =  40000
     Max angular momentum in pseudopotentials (lmaxx) =  3

     Found symmetry operation: I + ( -0.5000 -0.5000  0.0000)
     This is a supercell, fractional translations are disabled

     bravais-lattice index     =            8
     lattice parameter (alat)  =       7.8826  a.u.
     unit-cell volume          =    2643.5500 (a.u.)^3
     number of atoms/cell      =           12
     number of atomic types    =            1
     number of electrons       =       132.00
     number of Kohn-Sham states=           79
     kinetic-energy cutoff     =      30.0000  Ry
     charge density cutoff     =     300.0000  Ry
     scf convergence threshold =      1.0E-06
     mixing beta               =       0.3000
     number of iterations used =            8  plain     mixing
     energy convergence thresh.=      1.0E-04
     force convergence thresh. =      1.0E-03
     Exchange-correlation= SLA  PW   PBE  PBE
                           (   1   4   3   4   0   0   0)
     nstep                     =           50

     celldm(1)=   7.882596  celldm(2)=   1.000000  celldm(3)=   5.397340
     celldm(4)=   0.000000  celldm(5)=   0.000000  celldm(6)=   0.000000

     crystal axes: (cart. coord. in units of alat)
               a(1) = (   1.000000   0.000000   0.000000 )
               a(2) = (   0.000000   1.000000   0.000000 )
               a(3) = (   0.000000   0.000000   5.397340 )

     reciprocal axes: (cart. coord. in units 2 pi/alat)
               b(1) = (  1.000000  0.000000  0.000000 )
               b(2) = (  0.000000  1.000000  0.000000 )
               b(3) = (  0.000000  0.000000  0.185276 )

     PseudoPot. # 1 for Au read from file:
     /expanse/lustre/projects/csd622/tpascal/nano110/qe/pseudo/au_pbe_v1.uspp.F.UPF
     MD5 check sum: 9d7f43293ad2c663164586bc4b293ffc
     Pseudo is Ultrasoft + core correction, Zval = 11.0
     Generated by new atomic code, or converted to UPF format
     Using radial grid of  985 points,  7 beta functions with:
                l(1) =   0
                l(2) =   0
                l(3) =   1
                l(4) =   1
                l(5) =   2
                l(6) =   2
                l(7) =   3
     Q(r) pseudized with  6 coefficients,  rinner =    1.900   1.900   1.900
                                                       1.900   1.900   1.900
                                                       1.900

     atomic species   valence    mass     pseudopotential
        Au            11.00   196.96655     Au( 1.00)

      8 Sym. Ops. (no inversion) found

                                    s                        frac. trans.

      isym =  1     identity

 cryst.   s( 1) = (     1          0          0      )
                  (     0          1          0      )
                  (     0          0          1      )

 cart.    s( 1) = (  1.0000000  0.0000000  0.0000000 )
                  (  0.0000000  1.0000000  0.0000000 )
                  (  0.0000000  0.0000000  1.0000000 )

      isym =  2     180 deg rotation - cart. axis [0,0,1]

[...]

      isym =  4      90 deg rotation - cart. axis [0,0,1]

[...]

      isym =  5     inv. 180 deg rotation - cart. axis [0,1,0]

[...]

      isym =  8     inv. 180 deg rotation - cart. axis [1,-1,0]

 cryst.   s( 8) = (     0          1          0      )
                  (     1          0          0      )
                  (     0          0          1      )

 cart.    s( 8) = (  0.0000000  1.0000000  0.0000000 )
                  (  1.0000000  0.0000000  0.0000000 )
                  (  0.0000000  0.0000000  1.0000000 )

     point group C_4v (4mm)
     there are  5 classes
     the character table:

       E     2C4   C2    2s_v  2s_d
A_1    1.00  1.00  1.00  1.00  1.00
A_2    1.00  1.00  1.00 -1.00 -1.00
B_1    1.00 -1.00  1.00  1.00 -1.00
B_2    1.00 -1.00  1.00 -1.00  1.00
E      2.00  0.00 -2.00  0.00  0.00

     the symmetry operations in each class and the name of the first element:

     E        1
          identity
     2C4      3    4
           90 deg rotation - cart. axis [0,0,-1]
     C2       2
          180 deg rotation - cart. axis [0,0,1]
     2s_v     5    6
          inv. 180 deg rotation - cart. axis [0,1,0]
     2s_d     7    8
          inv. 180 deg rotation - cart. axis [1,1,0]

   Cartesian axes

     site n.     atom                  positions (alat units)
         1           Au  tau(   1) = (   0.0000000   0.0000000   0.0000000  )
         2           Au  tau(   2) = (   0.0000000   0.0000000   1.0000000  )
         3           Au  tau(   3) = (   0.0000000   0.0000000   2.0000000  )
         4           Au  tau(   4) = (   0.0000000   0.5000000   0.5000000  )
         5           Au  tau(   5) = (   0.0000000   0.5000000   1.5000000  )
         6           Au  tau(   6) = (   0.0000000   0.5000000   2.5000000  )
         7           Au  tau(   7) = (   0.5000000   0.0000000   0.5000000  )
         8           Au  tau(   8) = (   0.5000000   0.0000000   1.5000000  )
         9           Au  tau(   9) = (   0.5000000   0.0000000   2.5000000  )
        10           Au  tau(  10) = (   0.5000000   0.5000000   0.0000000  )
        11           Au  tau(  11) = (   0.5000000   0.5000000   1.0000000  )
        12           Au  tau(  12) = (   0.5000000   0.5000000   2.0000000  )

   Crystallographic axes

     site n.     atom                  positions (cryst. coord.)
         1           Au  tau(   1) = (  0.0000000  0.0000000  0.0000000  )
         2           Au  tau(   2) = (  0.0000000  0.0000000  0.1852765  )
         3           Au  tau(   3) = (  0.0000000  0.0000000  0.3705529  )
         4           Au  tau(   4) = (  0.0000000  0.5000000  0.0926382  )
         5           Au  tau(   5) = (  0.0000000  0.5000000  0.2779147  )
         6           Au  tau(   6) = (  0.0000000  0.5000000  0.4631911  )
         7           Au  tau(   7) = (  0.5000000  0.0000000  0.0926382  )
         8           Au  tau(   8) = (  0.5000000  0.0000000  0.2779147  )
         9           Au  tau(   9) = (  0.5000000  0.0000000  0.4631911  )
        10           Au  tau(  10) = (  0.5000000  0.5000000  0.0000000  )
        11           Au  tau(  11) = (  0.5000000  0.5000000  0.1852765  )
        12           Au  tau(  12) = (  0.5000000  0.5000000  0.3705529  )

     number of k points=     6  Gaussian smearing, width (Ry)=  0.0030
                       cart. coord. in units 2pi/alat
        k(    1) = (   0.0000000   0.0000000   0.0000000), wk =   0.1250000
        k(    2) = (   0.0000000   0.2500000   0.0000000), wk =   0.5000000
        k(    3) = (   0.0000000  -0.5000000   0.0000000), wk =   0.2500000
        k(    4) = (   0.2500000   0.2500000   0.0000000), wk =   0.5000000
        k(    5) = (   0.2500000  -0.5000000   0.0000000), wk =   0.5000000
        k(    6) = (  -0.5000000  -0.5000000   0.0000000), wk =   0.1250000

                       cryst. coord.
        k(    1) = (   0.0000000   0.0000000   0.0000000), wk =   0.1250000
        k(    2) = (   0.0000000   0.2500000   0.0000000), wk =   0.5000000
        k(    3) = (   0.0000000  -0.5000000   0.0000000), wk =   0.2500000
        k(    4) = (   0.2500000   0.2500000   0.0000000), wk =   0.5000000
        k(    5) = (   0.2500000  -0.5000000   0.0000000), wk =   0.5000000
        k(    6) = (  -0.5000000  -0.5000000   0.0000000), wk =   0.1250000

     Check: negative core charge=   -0.000003

     Initial potential from superposition of free atoms

     starting charge  131.99853, renormalised to  132.00000

     negative rho (up, down):  7.266E-06 0.000E+00
     Starting wfcs are  108 randomized atomic wfcs

     Self-consistent Calculation

     iteration #  1     ecut=    30.00 Ry     beta= 0.30
     Davidson diagonalization with overlap
     ethr =  1.00E-02,  avg # of iterations =  3.0

     Threshold (ethr) on eigenvalues was too large:
     Diagonalizing with lowered threshold

     Davidson diagonalization with overlap
     ethr =  5.50E-04,  avg # of iterations =  1.8

     negative rho (up, down):  2.183E-06 0.000E+00

     total energy              =   -1379.58750554 Ry
     estimated scf accuracy    <       0.79912730 Ry

[...]

     End of self-consistent calculation

          k = 0.0000 0.0000 0.0000 (  7355 PWs)   bands (ev):

    -3.2415  -2.4563  -1.3751  -0.7614  -0.6412  -0.6411  -0.4380  -0.3770
    -0.3770  -0.3428  -0.3405  -0.1748  -0.1747  -0.1333   0.1061   0.1061
     0.3066   0.5285   0.5289   0.7745   0.8522   0.8522   1.1368   1.2893
     1.4440   1.4440   1.7924   1.7924   1.8349   1.8349   2.1724   2.2835
     2.4124   2.4124   2.6046   2.6247   2.7260   2.8229   2.8229   2.8263
     2.8264   2.9244   3.0691   3.0691   3.2023   3.3300   3.3301   3.4895
     3.6328   3.6328   3.6393   3.6393   3.6949   3.6949   3.7492   3.7789
     3.8997   3.9485   3.9485   4.0127   4.0131   4.0182   4.0184   4.4485
     4.4489   5.9613   7.0804   7.5078   7.5078   8.9296   8.9296  10.0378
    10.2586  10.2587  10.6325  10.6325  10.6644  10.6645  10.6653

     occupation numbers
     1.0000   1.0000   1.0000   1.0000   1.0000   1.0000   1.0000   1.0000
     1.0000   1.0000   1.0000   1.0000   1.0000   1.0000   1.0000   1.0000
     1.0000   1.0000   1.0000   1.0000   1.0000   1.0000   1.0000   1.0000
     1.0000   1.0000   1.0000   1.0000   1.0000   1.0000   1.0000   1.0000
     1.0000   1.0000   1.0000   1.0000   1.0000   1.0000   1.0000   1.0000
     1.0000   1.0000   1.0000   1.0000   1.0000   1.0000   1.0000   1.0000
     1.0000   1.0000   1.0000   1.0000   1.0000   1.0000   1.0000   1.0000
     1.0000   1.0000   1.0000   1.0000   1.0000   1.0000   1.0000   1.0000
     1.0000   0.0000   0.0000   0.0000   0.0000   0.0000   0.0000   0.0000
     0.0000   0.0000   0.0000   0.0000   0.0000   0.0000   0.0000

[...]

          k =-0.5000-0.5000 0.0000 (  7316 PWs)   bands (ev):

[...]

     the Fermi energy is     5.7651 ev

!    total energy              =   -1379.69503217 Ry
     estimated scf accuracy    <       0.00000022 Ry
     smearing contrib. (-TS)   =      -0.00042805 Ry
     internal energy E=F+TS    =   -1379.69460412 Ry

     The total energy is F=E-TS. E is the sum of the following terms:
     one-electron contribution =   -4923.70320732 Ry
     hartree contribution      =    2580.97256903 Ry
     xc contribution           =    -746.44621133 Ry
     ewald contribution        =    1709.48224550 Ry

     convergence has been achieved in  13 iterations

[...]

     Forces acting on atoms (cartesian axes, Ry/au):

     atom    1 type  1   force =     0.00000000    0.00000000    0.00722473
     atom    2 type  1   force =     0.00000000    0.00000000   -0.00017261
     atom    3 type  1   force =     0.00000000    0.00000000    0.00313013
     atom    4 type  1   force =     0.00000000    0.00000000   -0.00328528
[...]

     new trust radius        =       0.0072392774 bohr
     new conv_thr            =       0.0000010000 Ry

ATOMIC_POSITIONS (angstrom)
Au            0.0000000000        0.0000000000        0.0038231613
Au            0.0000000000        0.0000000000        4.1711986605
Au            0.0000000000        0.0000000000        8.3442363917
Au            0.0000000000        2.0856450000        2.0839065056
Au            0.0000000000        2.0856450000        6.2570576648
Au            0.0000000000        2.0856450000       10.4244547696
Au            2.0856450000        0.0000000000        2.0839065056
Au            2.0856450000        0.0000000000        6.2570576648
Au            2.0856450000        0.0000000000       10.4244547696
Au            2.0856450000        2.0856450000        0.0038308606
Au            2.0856450000        2.0856450000        4.1712007879
Au            2.0856450000        2.0856450000        8.3442222580

     Writing output data file ./surface.save/
     NEW-OLD atomic charge density approx. for the potential

[...]

     Energy error            =      2.3E-04
     Gradient error          =      6.7E-03

[...]

     energy   old            =   -1379.6950321670 Ry
     energy   new            =   -1379.6952602277 Ry

     CASE: energy  _new < energy  _old

     WARNING: bfgs curvature condition failed, Theta= 0.911
     new trust radius        =       0.0079632051 bohr
     new conv_thr            =       0.0000000228 Ry

[...]

     WARNING: bfgs curvature condition failed, Theta= 0.939
     new trust radius        =       0.0065355273 bohr
     new conv_thr            =       0.0000000100 Ry

[...]

     Total force =     0.005743     Total SCF correction =     0.000623
     SCF correction compared to forces is large: reduce conv_thr to get better values

[...]

     Total force =     0.003142     Total SCF correction =     0.000512
     SCF correction compared to forces is large: reduce conv_thr to get better values

[...]

     number of scf cycles    =  13
     number of bfgs steps    =  12

     energy   old            =   -1379.6966780352 Ry
     energy   new            =   -1379.6966978243 Ry

     CASE: energy  _new < energy  _old

     new trust radius        =       0.0044106993 bohr
     new conv_thr            =       0.0000000100 Ry

ATOMIC_POSITIONS (angstrom)
Au            0.0000000000        0.0000000000        0.0749548220
Au            0.0000000000        0.0000000000        4.1801184956
Au            0.0000000000        0.0000000000        8.3145756127
Au            0.0000000000        2.0856450000        2.1139508475
Au            0.0000000000        2.0856450000        6.2483371513
Au            0.0000000000        2.0856450000       10.3527630311
Au            2.0856450000        0.0000000000        2.1139508475
Au            2.0856450000        0.0000000000        6.2483371513
Au            2.0856450000        0.0000000000       10.3527630311
Au            2.0856450000        2.0856450000        0.0754143543
Au            2.0856450000        2.0856450000        4.1800900398
Au            2.0856450000        2.0856450000        8.3140946160

     Writing output data file ./surface.save/
     NEW-OLD atomic charge density approx. for the potential

     Check: negative core charge=   -0.000003

[...]

     Self-consistent Calculation

[...]

     Threshold (ethr) on eigenvalues was too large:
     Diagonalizing with lowered threshold

     Davidson diagonalization with overlap
     ethr =  1.37E-08,  avg # of iterations =  5.8

[...]

     total energy              =   -1379.69671652 Ry
     estimated scf accuracy    <       0.00000001 Ry

     iteration #  8     ecut=    30.00 Ry     beta= 0.30
     Davidson diagonalization with overlap
     ethr =  1.08E-11,  avg # of iterations =  2.0

[...]

     End of self-consistent calculation

[...]

          k = 0.2500-0.5000 0.0000 (  7340 PWs)   bands (ev):

[...]

          k =-0.5000-0.5000 0.0000 (  7316 PWs)   bands (ev):

    -0.9943  -0.9942  -0.9942  -0.9942  -0.5407  -0.5407  -0.5405  -0.5405
     0.1923   0.1923   0.1927   0.1927   1.1186   1.1186   1.1186   1.1187
     1.1660   1.1661   1.1662   1.1662   1.3219   1.3221   1.3221   1.3222
     1.3815   1.3815   1.3816   1.3816   1.6779   1.6780   1.6780   1.6780
     1.7473   1.7474   1.7474   1.7477   2.2297   2.2297   2.2298   2.2302
     2.6152   2.6152   2.6152   2.6154   3.0112   3.0114   3.0115   3.0115
     3.5024   3.5024   3.5025   3.5025   3.5323   3.5325   3.5325   3.5326
     3.7366   3.7366   3.7367   3.7367   5.2199   5.2203   5.2203   5.2206
     5.4236   5.4237   5.4237   5.4243   5.8069   5.8075   5.8075   5.8077
     7.9248   7.9255   7.9255   7.9258   9.8220   9.8221   9.8223

     occupation numbers
     1.0000   1.0000   1.0000   1.0000   1.0000   1.0000   1.0000   1.0000
     1.0000   1.0000   1.0000   1.0000   1.0000   1.0000   1.0000   1.0000
     1.0000   1.0000   1.0000   1.0000   1.0000   1.0000   1.0000   1.0000
     1.0000   1.0000   1.0000   1.0000   1.0000   1.0000   1.0000   1.0000
     1.0000   1.0000   1.0000   1.0000   1.0000   1.0000   1.0000   1.0000
     1.0000   1.0000   1.0000   1.0000   1.0000   1.0000   1.0000   1.0000
     1.0000   1.0000   1.0000   1.0000   1.0000   1.0000   1.0000   1.0000
     1.0000   1.0000   1.0000   1.0000   1.0000   1.0000   1.0000   1.0000
     1.0000   1.0000   1.0000   1.0000   0.0634   0.0607   0.0607   0.0601
     0.0000   0.0000   0.0000   0.0000   0.0000   0.0000   0.0000

     the Fermi energy is     5.7628 ev

!    total energy              =   -1379.69671653 Ry
     estimated scf accuracy    <          1.0E-09 Ry
     smearing contrib. (-TS)   =      -0.00050389 Ry
     internal energy E=F+TS    =   -1379.69621263 Ry

     The total energy is F=E-TS. E is the sum of the following terms:
     one-electron contribution =   -5076.82742058 Ry
     hartree contribution      =    2657.40952080 Ry
     xc contribution           =    -746.54661102 Ry
     ewald contribution        =    1786.26829817 Ry

     convergence has been achieved in   8 iterations

     negative rho (up, down):  2.272E-05 0.000E+00

     Forces acting on atoms (cartesian axes, Ry/au):

     atom    1 type  1   force =     0.00000000    0.00000000    0.00007196
     atom    2 type  1   force =     0.00000000    0.00000000    0.00043673
     atom    3 type  1   force =     0.00000000    0.00000000    0.00017450
     atom    4 type  1   force =     0.00000000    0.00000000   -0.00020222
     atom    5 type  1   force =     0.00000000    0.00000000   -0.00046461
     atom    6 type  1   force =     0.00000000    0.00000000    0.00000115
     atom    7 type  1   force =     0.00000000    0.00000000   -0.00020222
     atom    8 type  1   force =     0.00000000    0.00000000   -0.00046461
     atom    9 type  1   force =     0.00000000    0.00000000    0.00000115
     atom   10 type  1   force =     0.00000000    0.00000000    0.00004398
     atom   11 type  1   force =     0.00000000    0.00000000    0.00041399
     atom   12 type  1   force =     0.00000000    0.00000000    0.00019022
     The non-local contrib.  to forces
     atom    1 type  1   force =     0.00000000    0.00000000    0.01045984
     atom    2 type  1   force =     0.00000000    0.00000000   -0.00283462
     atom    3 type  1   force =     0.00000000    0.00000000    0.01563345
     atom    4 type  1   force =     0.00000000    0.00000000   -0.01571192
     atom    5 type  1   force =     0.00000000    0.00000000    0.00282861
     atom    6 type  1   force =     0.00000000    0.00000000   -0.01048557
     atom    7 type  1   force =     0.00000000    0.00000000   -0.01571192
     atom    8 type  1   force =     0.00000000    0.00000000    0.00282861
     atom    9 type  1   force =     0.00000000    0.00000000   -0.01048557
     atom   10 type  1   force =     0.00000000    0.00000000    0.01048668
     atom   11 type  1   force =     0.00000000    0.00000000   -0.00282768
     atom   12 type  1   force =     0.00000000    0.00000000    0.01573103
     The ionic contribution  to forces
     atom    1 type  1   force =    -0.00000000   -0.00000000 -108.57600490
     atom    2 type  1   force =     0.00000000    0.00000000  -21.97439307
     atom    3 type  1   force =    -0.00000000    0.00000000   66.09692894
     atom    4 type  1   force =     0.00000000   -0.00000000  -66.09465419
     atom    5 type  1   force =    -0.00000000    0.00000000   21.96948970
     atom    6 type  1   force =    -0.00000000   -0.00000000  108.57986557
     atom    7 type  1   force =    -0.00000000    0.00000000  -66.09465419
     atom    8 type  1   force =     0.00000000   -0.00000000   21.96948970
     atom    9 type  1   force =    -0.00000000    0.00000000  108.57986557
     atom   10 type  1   force =    -0.00000000   -0.00000000 -108.57197509
     atom   11 type  1   force =     0.00000000    0.00000000  -21.97474741
     atom   12 type  1   force =     0.00000000    0.00000000   66.09078936
     The local contribution  to forces
     atom    1 type  1   force =    -0.00000000    0.00000000  108.54008343
     atom    2 type  1   force =     0.00000000   -0.00000000   21.97853748
     atom    3 type  1   force =     0.00000000    0.00000000  -66.11621014
     atom    4 type  1   force =    -0.00000000    0.00000000   66.11394451
     atom    5 type  1   force =    -0.00000000   -0.00000000  -21.97367569
     atom    6 type  1   force =    -0.00000000    0.00000000 -108.54379917
     atom    7 type  1   force =     0.00000000   -0.00000000   66.11394451
     atom    8 type  1   force =    -0.00000000   -0.00000000  -21.97367569
     atom    9 type  1   force =     0.00000000    0.00000000 -108.54379917
     atom   10 type  1   force =     0.00000000    0.00000000  108.53594087
     atom   11 type  1   force =    -0.00000000   -0.00000000   21.97889259
     atom   12 type  1   force =    -0.00000000   -0.00000000  -66.11008296
     The core correction contribution to forces
     atom    1 type  1   force =    -0.00000000    0.00000000    0.02550815
     atom    2 type  1   force =    -0.00000000   -0.00000000   -0.00085627
     atom    3 type  1   force =    -0.00000000   -0.00000000    0.00382580
     atom    4 type  1   force =    -0.00000000    0.00000000   -0.00379020
     atom    5 type  1   force =    -0.00000000   -0.00000000    0.00085265
     atom    6 type  1   force =     0.00000000    0.00000000   -0.02554797
     atom    7 type  1   force =     0.00000000   -0.00000000   -0.00379020
     atom    8 type  1   force =    -0.00000000    0.00000000    0.00085265
     atom    9 type  1   force =     0.00000000   -0.00000000   -0.02554797
     atom   10 type  1   force =     0.00000000    0.00000000    0.02556126
     atom   11 type  1   force =    -0.00000000   -0.00000000   -0.00088625
     atom   12 type  1   force =    -0.00000000   -0.00000000    0.00375891
     The Hubbard contrib.    to forces
     atom    1 type  1   force =     0.00000000    0.00000000    0.00000000
     atom    2 type  1   force =     0.00000000    0.00000000    0.00000000
     atom    3 type  1   force =     0.00000000    0.00000000    0.00000000
     atom    4 type  1   force =     0.00000000    0.00000000    0.00000000
     atom    5 type  1   force =     0.00000000    0.00000000    0.00000000
     atom    6 type  1   force =     0.00000000    0.00000000    0.00000000
     atom    7 type  1   force =     0.00000000    0.00000000    0.00000000
     atom    8 type  1   force =     0.00000000    0.00000000    0.00000000
     atom    9 type  1   force =     0.00000000    0.00000000    0.00000000
     atom   10 type  1   force =     0.00000000    0.00000000    0.00000000
     atom   11 type  1   force =     0.00000000    0.00000000    0.00000000
     atom   12 type  1   force =     0.00000000    0.00000000    0.00000000
     The SCF correction term to forces
     atom    1 type  1   force =    -0.00000000   -0.00000000    0.00002167
     atom    2 type  1   force =     0.00000000    0.00000000   -0.00002055
     atom    3 type  1   force =     0.00000000   -0.00000000   -0.00000730
     atom    4 type  1   force =    -0.00000000   -0.00000000    0.00000581
     atom    5 type  1   force =    -0.00000000   -0.00000000    0.00003636
     atom    6 type  1   force =     0.00000000    0.00000000   -0.00003548
     atom    7 type  1   force =    -0.00000000    0.00000000    0.00000581
     atom    8 type  1   force =     0.00000000    0.00000000    0.00003636
     atom    9 type  1   force =     0.00000000    0.00000000   -0.00003548
     atom   10 type  1   force =    -0.00000000    0.00000000    0.00002651
     atom   11 type  1   force =     0.00000000   -0.00000000   -0.00002101
     atom   12 type  1   force =    -0.00000000   -0.00000000   -0.00000988

     Total force =     0.000974     Total SCF correction =     0.000086

     Computing stress (Cartesian axis) and pressure

     negative rho (up, down):  2.272E-05 0.000E+00
          total   stress  (Ry/bohr**3)                   (kbar)     P=      -14.17
  -0.00014210   0.00000000   0.00000000          -20.90        0.00        0.00
   0.00000000  -0.00014210   0.00000000            0.00      -20.90        0.00
   0.00000000   0.00000000  -0.00000482            0.00        0.00       -0.71

     kinetic stress (kbar)  11190.67      0.00      0.00
                                0.00  11190.67      0.00
                                0.00      0.00  11245.02

     local   stress (kbar)-273675.35     -0.00     -0.00
                               -0.00-273675.35     -0.00
                               -0.00     -0.00 301045.95

     nonloc. stress (kbar)  -7079.34      0.00      0.00
                                0.00  -7079.34      0.00
                                0.00      0.00  -7086.02

     hartree stress (kbar) 143648.82      0.00      0.00
                                0.00 143648.82      0.00
                                0.00      0.00-139421.32

     exc-cor stress (kbar)  28958.53      0.00     -0.00
                                0.00  28958.53      0.00
                               -0.00      0.00  28954.65

     corecor stress (kbar) -33420.36     -0.00      0.00
                               -0.00 -33420.36     -0.00
                                0.00     -0.00 -33426.84

     ewald   stress (kbar) 130356.13     -0.00      0.00
                               -0.00 130356.13      0.00
                                0.00      0.00-161312.16

     hubbard stress (kbar)      0.00      0.00      0.00
                                0.00      0.00      0.00
                                0.00      0.00      0.00

     DFT-D   stress (kbar)      0.00      0.00      0.00
                                0.00      0.00      0.00
                                0.00      0.00      0.00

     XDM     stress (kbar)      0.00      0.00      0.00
                                0.00      0.00      0.00
                                0.00      0.00      0.00

     dft-nl  stress (kbar)      0.00      0.00      0.00
                                0.00      0.00      0.00
                                0.00      0.00      0.00

     TS-vdW  stress (kbar)      0.00      0.00      0.00
                                0.00      0.00      0.00
                                0.00      0.00      0.00

     Energy error            =      1.9E-05
     Gradient error          =      4.6E-04

     bfgs converged in  14 scf cycles and  13 bfgs steps
     (criteria: energy <  1.0E-04 Ry, force <  1.0E-03 Ry/Bohr)

     End of BFGS Geometry Optimization

     Final energy   =   -1379.6967165265 Ry

     File ./surface.bfgs deleted, as requested
Begin final coordinates

ATOMIC_POSITIONS (angstrom)
Au            0.0000000000        0.0000000000        0.0749548220
Au            0.0000000000        0.0000000000        4.1801184956
Au            0.0000000000        0.0000000000        8.3145756127
Au            0.0000000000        2.0856450000        2.1139508475
Au            0.0000000000        2.0856450000        6.2483371513
Au            0.0000000000        2.0856450000       10.3527630311
Au            2.0856450000        0.0000000000        2.1139508475
Au            2.0856450000        0.0000000000        6.2483371513
Au            2.0856450000        0.0000000000       10.3527630311
Au            2.0856450000        2.0856450000        0.0754143543
Au            2.0856450000        2.0856450000        4.1800900398
Au            2.0856450000        2.0856450000        8.3140946160
End final coordinates

     Writing output data file ./surface.save/

     General routines

     Parallel routines

   This run was terminated on:   3:58: 7  10Dec2021

   JOB DONE.