     Program PWSCF v.6.7MaX starts on  6Dec2021 at 17:13:42

     R & G space division:  proc/nbgrp/npool/nimage =      64
     Reading input from au_surface.111.qe.in

     Current dimensions of program PWSCF are:
     Max number of different atomic species (ntypx) = 10
     Max number of k-points (npk) =  40000
     Max angular momentum in pseudopotentials (lmaxx) =  3

     Found symmetry operation: I + (  0.0000  0.3333  0.0000)
     This is a supercell, fractional translations are disabled

     bravais-lattice index     =           14
     lattice parameter (alat)  =      16.7215  a.u.
     unit-cell volume          =    7882.0011 (a.u.)^3
     number of atoms/cell      =           27
     number of atomic types    =            1
     number of electrons       =       297.00
     number of Kohn-Sham states=          179
     kinetic-energy cutoff     =      30.0000  Ry
     charge density cutoff     =     300.0000  Ry
     scf convergence threshold =      1.0E-06
     mixing beta               =       0.3000
     number of iterations used =            8  plain     mixing
     energy convergence thresh.=      1.0E-04
     force convergence thresh. =      1.0E-03
     Exchange-correlation= SLA  PW   PBE  PBE
                           (   1   4   3   4   0   0   0)
     nstep                     =           50

     celldm(1)=  16.721506  celldm(2)=   1.000000  celldm(3)=   1.946613
     celldm(4)=   0.000000  celldm(5)=   0.000000  celldm(6)=  -0.500000

     crystal axes: (cart. coord. in units of alat)
               a(1) = (   1.000000   0.000000   0.000000 )
               a(2) = (  -0.500000   0.866025   0.000000 )
               a(3) = (   0.000000   0.000000   1.946613 )

     reciprocal axes: (cart. coord. in units 2 pi/alat)
               b(1) = (  1.000000  0.577350 -0.000000 )
               b(2) = (  0.000000  1.154701  0.000000 )
               b(3) = (  0.000000 -0.000000  0.513713 )

     PseudoPot. # 1 for Au read from file:
     /expanse/lustre/projects/csd622/tpascal/nano110/qe/pseudo/au_pbe_v1.uspp.F.UPF
     MD5 check sum: 9d7f43293ad2c663164586bc4b293ffc
     Pseudo is Ultrasoft + core correction, Zval = 11.0
     Generated by new atomic code, or converted to UPF format
     Using radial grid of  985 points,  7 beta functions with:
                l(1) =   0
                l(2) =   0
                l(3) =   1
                l(4) =   1
                l(5) =   2
                l(6) =   2
                l(7) =   3
     Q(r) pseudized with  6 coefficients,  rinner =    1.900   1.900   1.900
                                                       1.900   1.900   1.900
                                                       1.900

     atomic species   valence    mass     pseudopotential
        Au            11.00   196.96655     Au( 1.00)

      6 Sym. Ops. (no inversion) found

                                    s                        frac. trans.

      isym =  1     identity

 cryst.   s( 1) = (     1          0          0      )
                  (     0          1          0      )
                  (     0          0          1      )

 cart.    s( 1) = (  1.0000000  0.0000000  0.0000000 )
                  (  0.0000000  1.0000000  0.0000000 )
                  (  0.0000000  0.0000000  1.0000000 )

      isym =  2     120 deg rotation - cryst. axis [0,0,1]

[...]

      isym =  3     120 deg rotation - cryst. axis [0,0,-1]

[...]

      isym =  4     inv. 180 deg rotation - cart. axis [1,0,0]

[...]

      isym =  5     inv. 180 deg rotation - cryst. axis [0,1,0]

[...]

      isym =  6     inv. 180 deg rotation - cryst. axis [1,1,0]

 cryst.   s( 6) = (     0         -1          0      )
                  (    -1          0          0      )
                  (     0          0          1      )

 cart.    s( 6) = (  0.5000000 -0.8660254  0.0000000 )
                  ( -0.8660254 -0.5000000  0.0000000 )
                  (  0.0000000  0.0000000  1.0000000 )

     point group C_3v (3m)
     there are  3 classes
     the character table:

       E     2C3   3s_v
A_1    1.00  1.00  1.00
A_2    1.00  1.00 -1.00
E      2.00 -1.00  0.00

     the symmetry operations in each class and the name of the first element:

     E        1
          identity
     2C3      2    3
          120 deg rotation - cryst. axis [0,0,1]
     3s_v     4    5    6
          inv. 180 deg rotation - cart. axis [1,0,0]

   Cartesian axes

     site n.     atom                  positions (alat units)
         1           Au  tau(   1) = (  -0.0000002   0.1924501   0.5443312  )
         2           Au  tau(   2) = (   0.0000000   0.0000000   0.0000000  )
         3           Au  tau(   3) = (   0.1666668   0.0962249   0.2721652  )
         4           Au  tau(   4) = (  -0.1666668   0.4811252   0.5443312  )
         5           Au  tau(   5) = (  -0.1666666   0.2886751   0.0000000  )
         6           Au  tau(   6) = (   0.0000002   0.3849000   0.2721652  )
         7           Au  tau(   7) = (  -0.3333334   0.7698003   0.5443312  )
         8           Au  tau(   8) = (  -0.3333333   0.5773501   0.0000000  )
         9           Au  tau(   9) = (  -0.1666665   0.6735751   0.2721652  )
        10           Au  tau(  10) = (   0.3333331   0.1924501   0.5443312  )
        11           Au  tau(  11) = (   0.3333333   0.0000000   0.0000000  )
        12           Au  tau(  12) = (   0.5000001   0.0962249   0.2721652  )
        13           Au  tau(  13) = (   0.1666665   0.4811252   0.5443312  )
        14           Au  tau(  14) = (   0.1666666   0.2886751   0.0000000  )
        15           Au  tau(  15) = (   0.3333334   0.3849000   0.2721652  )
        16           Au  tau(  16) = (  -0.0000002   0.7698003   0.5443312  )
        17           Au  tau(  17) = (   0.0000000   0.5773501   0.0000000  )
        18           Au  tau(  18) = (   0.1666668   0.6735751   0.2721652  )
        19           Au  tau(  19) = (   0.6666663   0.1924501   0.5443312  )
        20           Au  tau(  20) = (   0.6666665   0.0000000   0.0000000  )
        21           Au  tau(  21) = (   0.8333333   0.0962249   0.2721652  )
        22           Au  tau(  22) = (   0.4999997   0.4811252   0.5443312  )
        23           Au  tau(  23) = (   0.4999999   0.2886751   0.0000000  )
        24           Au  tau(  24) = (   0.6666667   0.3849000   0.2721652  )
        25           Au  tau(  25) = (   0.3333331   0.7698003   0.5443312  )
        26           Au  tau(  26) = (   0.3333333   0.5773501   0.0000000  )
        27           Au  tau(  27) = (   0.5000001   0.6735751   0.2721652  )

   Crystallographic axes

     site n.     atom                  positions (cryst. coord.)
         1           Au  tau(   1) = (  0.1111110  0.2222223  0.2796299  )
         2           Au  tau(   2) = (  0.0000000  0.0000000  0.0000000  )
         3           Au  tau(   3) = (  0.2222223  0.1111110  0.1398147  )
         4           Au  tau(   4) = (  0.1111110  0.5555555  0.2796299  )
         5           Au  tau(   5) = ( -0.0000000  0.3333333  0.0000000  )
         6           Au  tau(   6) = (  0.2222223  0.4444442  0.1398147  )
         7           Au  tau(   7) = (  0.1111110  0.8888888  0.2796299  )
         8           Au  tau(   8) = (  0.0000000  0.6666665  0.0000000  )
         9           Au  tau(   9) = (  0.2222223  0.7777775  0.1398147  )
        10           Au  tau(  10) = (  0.4444442  0.2222223  0.2796299  )
        11           Au  tau(  11) = (  0.3333333  0.0000000  0.0000000  )
        12           Au  tau(  12) = (  0.5555555  0.1111110  0.1398147  )
        13           Au  tau(  13) = (  0.4444442  0.5555555  0.2796299  )
        14           Au  tau(  14) = (  0.3333333  0.3333333  0.0000000  )
        15           Au  tau(  15) = (  0.5555555  0.4444442  0.1398147  )
        16           Au  tau(  16) = (  0.4444442  0.8888888  0.2796299  )
        17           Au  tau(  17) = (  0.3333333  0.6666665  0.0000000  )
        18           Au  tau(  18) = (  0.5555555  0.7777775  0.1398147  )
        19           Au  tau(  19) = (  0.7777775  0.2222223  0.2796299  )
        20           Au  tau(  20) = (  0.6666665  0.0000000  0.0000000  )
        21           Au  tau(  21) = (  0.8888888  0.1111110  0.1398147  )
        22           Au  tau(  22) = (  0.7777775  0.5555555  0.2796299  )
        23           Au  tau(  23) = (  0.6666665  0.3333333  0.0000000  )
        24           Au  tau(  24) = (  0.8888888  0.4444442  0.1398147  )
        25           Au  tau(  25) = (  0.7777775  0.8888888  0.2796299  )
        26           Au  tau(  26) = (  0.6666665  0.6666665  0.0000000  )
        27           Au  tau(  27) = (  0.8888888  0.7777775  0.1398147  )

     number of k points=     4  Gaussian smearing, width (Ry)=  0.0030
                       cart. coord. in units 2pi/alat
        k(    1) = (   0.0000000   0.0000000   0.0000000), wk =   0.1250000
        k(    2) = (   0.0000000   0.2886751   0.0000000), wk =   0.7500000
        k(    3) = (   0.0000000  -0.5773503   0.0000000), wk =   0.3750000
        k(    4) = (   0.2500000   0.4330127   0.0000000), wk =   0.7500000

                       cryst. coord.
        k(    1) = (   0.0000000   0.0000000   0.0000000), wk =   0.1250000
        k(    2) = (   0.0000000   0.2500000   0.0000000), wk =   0.7500000
        k(    3) = (   0.0000000  -0.5000000   0.0000000), wk =   0.3750000
        k(    4) = (   0.2500000   0.2500000   0.0000000), wk =   0.7500000

     Check: negative core charge=   -0.000003

     Initial potential from superposition of free atoms

     starting charge  296.99670, renormalised to  297.00000

     negative rho (up, down):  3.262E-05 0.000E+00
     Starting wfcs are  243 randomized atomic wfcs

     Self-consistent Calculation

     iteration #  1     ecut=    30.00 Ry     beta= 0.30
     Davidson diagonalization with overlap
     ethr =  1.00E-02,  avg # of iterations =  5.0

     Threshold (ethr) on eigenvalues was too large:
     Diagonalizing with lowered threshold

     Davidson diagonalization with overlap
     ethr =  5.08E-04,  avg # of iterations =  3.2

     negative rho (up, down):  1.919E-05 0.000E+00

     total energy              =   -3104.00262121 Ry
     estimated scf accuracy    <       1.68343174 Ry

[...]

     End of self-consistent calculation

          k = 0.0000 0.0000 0.0000 ( 21879 PWs)   bands (ev):

    -5.6237  -4.0405  -3.6864  -3.5608  -3.5608  -3.5607  -3.5607  -3.5607
    -3.5607  -2.9536  -2.9536  -2.9535  -2.9535  -2.9535  -2.9535  -2.7144
    -2.7144  -2.7144  -2.7143  -2.7143  -2.7143  -2.3624  -2.3624  -2.3624
    -2.3624  -2.3624  -2.3624  -2.3550  -2.3550  -2.3198  -2.3198  -2.3198
    -2.3198  -1.8908  -1.8908  -1.8908  -1.8908  -1.5440  -1.5440  -1.5440
    -1.5440  -1.5440  -1.5440  -1.4310  -1.4310  -1.3977  -1.3306  -1.3306
    -1.3306  -1.3305  -1.3305  -1.3305  -1.1354  -1.1354  -1.0838  -1.0838
    -0.9467  -0.9135  -0.9134  -0.9134  -0.9134  -0.9134  -0.9133  -0.9022
    -0.9022  -0.8859  -0.8859  -0.8859  -0.8859  -0.8859  -0.8859  -0.7952
    -0.7952  -0.7952  -0.7952  -0.7877  -0.7877  -0.7747  -0.7747  -0.2262
[...]
     atom   11 type  1   force =    -0.00000323    0.00000518    0.03671949
     atom   12 type  1   force =     0.00000000    0.00000296   -0.00001244
     atom   13 type  1   force =     0.00000347   -0.00000200   -0.03672625
     atom   14 type  1   force =     0.00000287   -0.00000539    0.03671949
     atom   15 type  1   force =     0.00000256   -0.00000148   -0.00001244
     atom   16 type  1   force =     0.00000000    0.00000401   -0.03672625
     atom   17 type  1   force =     0.00000000   -0.00000000    0.03672359
     atom   18 type  1   force =     0.00000698    0.00000403   -0.00001285
     atom   19 type  1   force =     0.00000215   -0.00000124   -0.03672249
     atom   20 type  1   force =     0.00000323    0.00000518    0.03671949
     atom   21 type  1   force =     0.00000277   -0.00000160   -0.00001089
     atom   22 type  1   force =     0.00000000    0.00000249   -0.03672249
     atom   23 type  1   force =     0.00000000    0.00000000    0.03671664
     atom   24 type  1   force =    -0.00000256   -0.00000148   -0.00001244
     atom   25 type  1   force =     0.00000529    0.00000306   -0.03672274
     atom   26 type  1   force =     0.00000610    0.00000021    0.03671949
     atom   27 type  1   force =     0.00000000    0.00000319   -0.00001089
     The ionic contribution  to forces
     atom    1 type  1   force =    -0.00001458   -0.00125698   64.80827631
     atom    2 type  1   force =    -0.00001182   -0.00002446  -64.80960400
     atom    3 type  1   force =    -0.00050858   -0.00031263    0.00082864
     atom    4 type  1   force =    -0.00100311   -0.00057773   64.80905787
     atom    5 type  1   force =    -0.00055956   -0.00106793  -64.80967322
     atom    6 type  1   force =    -0.00002128   -0.00174724    0.00113834
     atom    7 type  1   force =    -0.00107877    0.00062205   64.80826896
     atom    8 type  1   force =    -0.00120445    0.00006981  -64.80967200
     atom    9 type  1   force =    -0.00152752    0.00088305    0.00113198
     atom   10 type  1   force =    -0.00009394   -0.00007635   64.80863041
     atom   11 type  1   force =    -0.00064607    0.00098265  -64.80967200
     atom   12 type  1   force =     0.00000308    0.00105167    0.00112156
     atom   13 type  1   force =     0.00098774   -0.00056936   64.80906608
     atom   14 type  1   force =     0.00054450   -0.00106444  -64.80968057
     atom   15 type  1   force =     0.00092913   -0.00053087    0.00111520
     atom   16 type  1   force =    -0.00000044    0.00115726   64.80905751
     atom   17 type  1   force =    -0.00000359    0.00001742  -64.81015526
     atom   18 type  1   force =     0.00150768    0.00089576    0.00112891
     atom   19 type  1   force =     0.00011494   -0.00006649   64.80862788
     atom   20 type  1   force =     0.00066169    0.00099303  -64.80967322
     atom   21 type  1   force =     0.00050137   -0.00029557    0.00082711
     atom   22 type  1   force =     0.00001904    0.00012037   64.80862910
     atom   23 type  1   force =     0.00001715    0.00000545  -64.80930075
     atom   24 type  1   force =    -0.00091360   -0.00052653    0.00111674
     atom   25 type  1   force =     0.00108116    0.00064028   64.80827464
     atom   26 type  1   force =     0.00120737    0.00008369  -64.80968057
     atom   27 type  1   force =     0.00001244    0.00059410    0.00081439
     The local contribution  to forces
     atom    1 type  1   force =     0.00003496    0.00127524  -64.75118227
     atom    2 type  1   force =    -0.00000000   -0.00000000   64.75246637
     atom    3 type  1   force =     0.00051291    0.00033569   -0.00078278
     atom    4 type  1   force =     0.00103601    0.00058515  -64.75196639
     atom    5 type  1   force =     0.00052715    0.00110016   64.75253707
     atom    6 type  1   force =    -0.00003426    0.00181500   -0.00109146
     atom    7 type  1   force =     0.00113313   -0.00062684  -64.75118227
     atom    8 type  1   force =     0.00119264   -0.00005249   64.75253707
     atom    9 type  1   force =     0.00149722   -0.00083759   -0.00109146
     atom   10 type  1   force =     0.00017484    0.00006057  -64.75154051
     atom   11 type  1   force =     0.00068919   -0.00100661   64.75253707
     atom   12 type  1   force =    -0.00001103   -0.00102604   -0.00107256
     atom   13 type  1   force =    -0.00096609    0.00058515  -64.75196639
     atom   14 type  1   force =    -0.00052715    0.00110016   64.75253707
     atom   15 type  1   force =    -0.00092835    0.00056281   -0.00107256
     atom   16 type  1   force =     0.00003496   -0.00114873  -64.75196639
     atom   17 type  1   force =     0.00000000    0.00002737   64.75300802
     atom   18 type  1   force =    -0.00156574   -0.00083759   -0.00109146
     atom   19 type  1   force =    -0.00005750    0.00006057  -64.75154051
     atom   20 type  1   force =    -0.00064178   -0.00100661   64.75253707
     atom   21 type  1   force =    -0.00053497    0.00033569   -0.00078278
     atom   22 type  1   force =     0.00005867   -0.00014064  -64.75154051
     atom   23 type  1   force =     0.00002371    0.00001369   64.75216895
     atom   24 type  1   force =     0.00090629    0.00056281   -0.00107256
     atom   25 type  1   force =    -0.00106321   -0.00062684  -64.75118227
     atom   26 type  1   force =    -0.00119264   -0.00005249   64.75253707
     atom   27 type  1   force =    -0.00001103   -0.00057179   -0.00078278
     The core correction contribution to forces
     atom    1 type  1   force =     0.00001114    0.00000430   -0.02047423
     atom    2 type  1   force =    -0.00000000    0.00000000    0.02052010
     atom    3 type  1   force =    -0.00000284    0.00001121   -0.00001621
     atom    4 type  1   force =     0.00001296    0.00000334   -0.02047646
     atom    5 type  1   force =    -0.00000293    0.00000818    0.02052104
     atom    6 type  1   force =    -0.00001113    0.00001826   -0.00001547
     atom    7 type  1   force =     0.00001287    0.00000129   -0.02047423
     atom    8 type  1   force =    -0.00000194    0.00000646    0.02052103
     atom    9 type  1   force =    -0.00000843    0.00001358   -0.00001547
     atom   10 type  1   force =     0.00001864   -0.00000210   -0.02047471
     atom   11 type  1   force =     0.00000854   -0.00000155    0.02052103
     atom   12 type  1   force =    -0.00000358    0.00000906   -0.00001653
     atom   13 type  1   force =     0.00000932    0.00000334   -0.02047646
     atom   14 type  1   force =     0.00000293    0.00000818    0.02052103
     atom   15 type  1   force =    -0.00000507    0.00001164   -0.00001653
     atom   16 type  1   force =     0.00001114    0.00000019   -0.02047645
     atom   17 type  1   force =    -0.00000000    0.00000872    0.02052343
     atom   18 type  1   force =    -0.00001383    0.00001358   -0.00001547
     atom   19 type  1   force =     0.00001874   -0.00000210   -0.02047471
     atom   20 type  1   force =     0.00000656   -0.00000155    0.02052104
     atom   21 type  1   force =    -0.00000432    0.00001121   -0.00001621
     atom   22 type  1   force =     0.00001869   -0.00000202   -0.02047471
     atom   23 type  1   force =     0.00000755    0.00000436    0.02051967
     atom   24 type  1   force =    -0.00000209    0.00001164   -0.00001653
     atom   25 type  1   force =     0.00000940    0.00000129   -0.02047423
     atom   26 type  1   force =     0.00000193    0.00000646    0.02052103
     atom   27 type  1   force =    -0.00000358    0.00000993   -0.00001621
     The Hubbard contrib.    to forces
     atom    1 type  1   force =     0.00000000    0.00000000    0.00000000
     atom    2 type  1   force =     0.00000000    0.00000000    0.00000000
     atom    3 type  1   force =     0.00000000    0.00000000    0.00000000
     atom    4 type  1   force =     0.00000000    0.00000000    0.00000000
     atom    5 type  1   force =     0.00000000    0.00000000    0.00000000
     atom    6 type  1   force =     0.00000000    0.00000000    0.00000000
     atom    7 type  1   force =     0.00000000    0.00000000    0.00000000
     atom    8 type  1   force =     0.00000000    0.00000000    0.00000000
     atom    9 type  1   force =     0.00000000    0.00000000    0.00000000
     atom   10 type  1   force =     0.00000000    0.00000000    0.00000000
     atom   11 type  1   force =     0.00000000    0.00000000    0.00000000
     atom   12 type  1   force =     0.00000000    0.00000000    0.00000000
     atom   13 type  1   force =     0.00000000    0.00000000    0.00000000
     atom   14 type  1   force =     0.00000000    0.00000000    0.00000000
     atom   15 type  1   force =     0.00000000    0.00000000    0.00000000
     atom   16 type  1   force =     0.00000000    0.00000000    0.00000000
     atom   17 type  1   force =     0.00000000    0.00000000    0.00000000
     atom   18 type  1   force =     0.00000000    0.00000000    0.00000000
     atom   19 type  1   force =     0.00000000    0.00000000    0.00000000
     atom   20 type  1   force =     0.00000000    0.00000000    0.00000000
     atom   21 type  1   force =     0.00000000    0.00000000    0.00000000
     atom   22 type  1   force =     0.00000000    0.00000000    0.00000000
     atom   23 type  1   force =     0.00000000    0.00000000    0.00000000
     atom   24 type  1   force =     0.00000000    0.00000000    0.00000000
     atom   25 type  1   force =     0.00000000    0.00000000    0.00000000
     atom   26 type  1   force =     0.00000000    0.00000000    0.00000000
     atom   27 type  1   force =     0.00000000    0.00000000    0.00000000
     The SCF correction term to forces
     atom    1 type  1   force =     0.00000000   -0.00002572    0.00011187
     atom    2 type  1   force =    -0.00000000    0.00000000   -0.00007671
     atom    3 type  1   force =    -0.00001797   -0.00001037   -0.00000534
     atom    4 type  1   force =    -0.00001231   -0.00000711    0.00012463
     atom    5 type  1   force =    -0.00000265   -0.00001961   -0.00008834
     atom    6 type  1   force =     0.00000000   -0.00003069   -0.00000717
     atom    7 type  1   force =    -0.00002228    0.00001286    0.00011187
     atom    8 type  1   force =    -0.00001830    0.00000751   -0.00008834
     atom    9 type  1   force =    -0.00002657    0.00001534   -0.00000717
     atom   10 type  1   force =    -0.00000968   -0.00000559    0.00011536
     atom   11 type  1   force =    -0.00001566    0.00001210   -0.00008834
     atom   12 type  1   force =     0.00000000    0.00001044   -0.00000942
     atom   13 type  1   force =     0.00001231   -0.00000711    0.00012463
     atom   14 type  1   force =     0.00000265   -0.00001961   -0.00008834
     atom   15 type  1   force =     0.00000905   -0.00000522   -0.00000942
     atom   16 type  1   force =     0.00000000    0.00001421    0.00012463
     atom   17 type  1   force =    -0.00000000   -0.00000000   -0.00009786
     atom   18 type  1   force =     0.00002657    0.00001534   -0.00000717
     atom   19 type  1   force =     0.00000968   -0.00000559    0.00011536
     atom   20 type  1   force =     0.00001566    0.00001210   -0.00008834
     atom   21 type  1   force =     0.00001797   -0.00001037   -0.00000534
     atom   22 type  1   force =     0.00000000    0.00001117    0.00011536
     atom   23 type  1   force =     0.00000000    0.00000000   -0.00008871
     atom   24 type  1   force =    -0.00000905   -0.00000522   -0.00000942
     atom   25 type  1   force =     0.00002228    0.00001286    0.00011187
     atom   26 type  1   force =     0.00001830    0.00000751   -0.00008834
     atom   27 type  1   force =     0.00000000    0.00002075   -0.00000534

     Total force =     0.000071     Total SCF correction =     0.000452
     SCF correction compared to forces is large: reduce conv_thr to get better values

     Computing stress (Cartesian axis) and pressure

     negative rho (up, down):  6.703E-05 0.000E+00
          total   stress  (Ry/bohr**3)                   (kbar)     P=      -28.62
  -0.00029060   0.00000000   0.00000000          -42.75        0.00        0.00
   0.00000000  -0.00029060   0.00000000            0.00      -42.75        0.00
   0.00000000   0.00000000  -0.00000243            0.00        0.00       -0.36

     kinetic stress (kbar)   8407.26     -0.00      0.00
                               -0.00   8407.26      0.00
                                0.00      0.00   8539.11

     local   stress (kbar)-151836.60     -0.00     -0.00
                               -0.00-151836.60      0.00
                               -0.00      0.00 172577.21

     nonloc. stress (kbar)  -5355.63     -0.00      0.00
                                0.00  -5355.63      0.00
                                0.00      0.00  -5357.41

     hartree stress (kbar)  80512.33     -0.00     -0.00
                               -0.00  80512.33      0.00
                               -0.00      0.00 -77363.83

     exc-cor stress (kbar)  21857.87      0.00     -0.00
                                0.00  21857.87      0.00
                               -0.00      0.00  21850.89

     corecor stress (kbar) -25216.39     -0.00      0.00
                               -0.00 -25216.39     -0.00
                                0.00     -0.00 -25230.71

     ewald   stress (kbar)  71588.40      0.00      0.00
                                0.00  71588.40     -0.00
                                0.00     -0.00 -95015.62

     hubbard stress (kbar)      0.00      0.00      0.00
                                0.00      0.00      0.00
                                0.00      0.00      0.00

     DFT-D   stress (kbar)      0.00      0.00      0.00
                                0.00      0.00      0.00
                                0.00      0.00      0.00

     XDM     stress (kbar)      0.00      0.00      0.00
                                0.00      0.00      0.00
                                0.00      0.00      0.00

     dft-nl  stress (kbar)      0.00      0.00      0.00
                                0.00      0.00      0.00
                                0.00      0.00      0.00

     TS-vdW  stress (kbar)      0.00      0.00      0.00
                                0.00      0.00      0.00
                                0.00      0.00      0.00

     Energy error            =      4.0E-05
     Gradient error          =      2.2E-05

     bfgs converged in   7 scf cycles and   6 bfgs steps
     (criteria: energy <  1.0E-04 Ry, force <  1.0E-03 Ry/Bohr)

     End of BFGS Geometry Optimization

     Final energy   =   -3104.1962824007 Ry

     File ./surface.bfgs deleted, as requested
Begin final coordinates

ATOMIC_POSITIONS (angstrom)
Au           -0.0000014748        1.7029560193        4.8362401417
Au            0.0000000000        0.0000000000       -0.0196162658
Au            1.4747878253        0.8514674450        2.4082247859
Au           -1.4747489894        4.2573185082        4.8362495337
Au           -1.4747540974        2.5544126683       -0.0195992608
Au            0.0000014748        3.4058885628        2.4082387414
Au           -2.9495180379        6.8116685644        4.8362401417
Au           -2.9495097862        5.1087644501       -0.0195992608
Au           -1.4747307700        5.9601997382        2.4082387414
Au            2.9495485248        1.7029243377        4.8362586048
Au            2.9495633113       -0.0000318215       -0.0195992608
Au            4.4243204748        0.8514335375        2.4082344900
Au            1.4747460398        4.2573185082        4.8362495337
Au            1.4747540974        2.5544126683       -0.0195992608
Au            2.9495247852        3.4058546025        2.4082344900
Au           -0.0000014748        6.8116561318        4.8362495337
Au            0.0000000000        5.1087635313       -0.0195892796
Au            1.4747337196        5.9601997382        2.4082387414
Au            5.8990865256        1.7029243377        4.8362586048
Au            5.8990746887       -0.0000318215       -0.0195992608
Au            7.3738531243        0.8514674450        2.4082247859
Au            4.4243175252        4.2572991758        4.8362586048
Au            4.4243190000        2.5543817656       -0.0195907823
Au            5.8991161644        3.4058546025        2.4082344900
Au            2.9495150883        6.8116685644        4.8362401417
Au            2.9495097862        5.1087644501       -0.0195992608
Au            4.4243204748        5.9602078524        2.4082247859
End final coordinates

     Writing output data file ./surface.save/

     General routines

     Parallel routines

   This run was terminated on:  17:17: 1   6Dec2021

   JOB DONE.