     Program PWSCF v.6.7MaX starts on 10Dec2021 at  3:51:35

     R & G space division:  proc/nbgrp/npool/nimage =      16
     Reading input from ag_surface.111.qe.7656380.1_1_3.in

     Current dimensions of program PWSCF are:
     Max number of different atomic species (ntypx) = 10
     Max number of k-points (npk) =  40000
     Max angular momentum in pseudopotentials (lmaxx) =  3

     bravais-lattice index     =           14
     lattice parameter (alat)  =       5.5595  a.u.
     unit-cell volume          =    1599.3508 (a.u.)^3
     number of atoms/cell      =            9
     number of atomic types    =            1
     number of electrons       =       171.00
     number of Kohn-Sham states=          103
     kinetic-energy cutoff     =      30.0000  Ry
     charge density cutoff     =     300.0000  Ry
     scf convergence threshold =      1.0E-06
     mixing beta               =       0.3000
     number of iterations used =            8  plain     mixing
     energy convergence thresh.=      1.0E-04
     force convergence thresh. =      1.0E-03
     Exchange-correlation=  SLA  PW   PBX  PBC
                           (   1   4   3   4   0   0   0)
     nstep                     =           50

     celldm(1)=   5.559480  celldm(2)=   1.000000  celldm(3)=  10.747579
     celldm(4)=   0.000000  celldm(5)=   0.000000  celldm(6)=  -0.500000

     crystal axes: (cart. coord. in units of alat)
               a(1) = (   1.000000   0.000000   0.000000 )
               a(2) = (  -0.500000   0.866025   0.000000 )
               a(3) = (   0.000000   0.000000  10.747579 )

     reciprocal axes: (cart. coord. in units 2 pi/alat)
               b(1) = (  1.000000  0.577350 -0.000000 )
               b(2) = (  0.000000  1.154701  0.000000 )
               b(3) = (  0.000000 -0.000000  0.093044 )

     PseudoPot. # 1 for Ag read from file:
     /expanse/lustre/projects/csd622/tpascal/nano110/qe/pseudo/ag_pbe_v1.4.uspp.F.UPF
     MD5 check sum: d66d668201baa78d5eb5b04ef7011058
     Pseudo is Ultrasoft + core correction, Zval = 19.0
     Generated by new atomic code, or converted to UPF format
     Using radial grid of  887 points,  6 beta functions with:
                l(1) =   0
                l(2) =   0
                l(3) =   1
                l(4) =   1
                l(5) =   2
                l(6) =   2
     Q(r) pseudized with  6 coefficients,  rinner =    1.300   1.300   1.300
                                                       1.300   1.300

     atomic species   valence    mass     pseudopotential
        Ag            19.00   107.86820     Ag( 1.00)

     No symmetry found

                                    s                        frac. trans.

      isym =  1     identity

 cryst.   s( 1) = (     1          0          0      )
                  (     0          1          0      )
                  (     0          0          1      )

 cart.    s( 1) = (  1.0000000  0.0000000  0.0000000 )
                  (  0.0000000  1.0000000  0.0000000 )
                  (  0.0000000  0.0000000  1.0000000 )

     point group C_1 (1)
     there are  1 classes
     the character table:

       E
A      1.00

     the symmetry operations in each class and the name of the first element:

     E        1
          identity

   Cartesian axes

     site n.     atom                  positions (alat units)
         1           Ag  tau(   1) = (   0.3333330   0.6666670   1.6329948  )
         2           Ag  tau(   2) = (   0.3333330   0.6666670   4.0824858  )
         3           Ag  tau(   3) = (   0.3333330   0.6666670   6.5319768  )
         4           Ag  tau(   4) = (   0.0000000   0.0000000   0.0000000  )
         5           Ag  tau(   5) = (   0.0000000   0.0000000   2.4494910  )
         6           Ag  tau(   6) = (   0.0000000   0.0000000   4.8989820  )
         7           Ag  tau(   7) = (   0.6666670   0.3333330   0.8164962  )
         8           Ag  tau(   8) = (   0.6666670   0.3333330   3.2659872  )
         9           Ag  tau(   9) = (   0.6666670   0.3333330   5.7154782  )

   Crystallographic axes

     site n.     atom                  positions (cryst. coord.)
         1           Ag  tau(   1) = (  0.7182334  0.7698008  0.1519407  )
         2           Ag  tau(   2) = (  0.7182334  0.7698008  0.3798517  )
         3           Ag  tau(   3) = (  0.7182334  0.7698008  0.6077626  )
         4           Ag  tau(   4) = (  0.0000000  0.0000000  0.0000000  )
         5           Ag  tau(   5) = (  0.0000000  0.0000000  0.2279110  )
         6           Ag  tau(   6) = (  0.0000000  0.0000000  0.4558219  )
         7           Ag  tau(   7) = (  0.8591169  0.3848998  0.0759702  )
         8           Ag  tau(   8) = (  0.8591169  0.3848998  0.3038812  )
         9           Ag  tau(   9) = (  0.8591169  0.3848998  0.5317922  )

     number of k points=    10  Gaussian smearing, width (Ry)=  0.0030
                       cart. coord. in units 2pi/alat
        k(    1) = (   0.0000000   0.0000000   0.0000000), wk =   0.1250000
        k(    2) = (   0.0000000   0.2886751   0.0000000), wk =   0.2500000
        k(    3) = (   0.0000000  -0.5773503   0.0000000), wk =   0.1250000
        k(    4) = (   0.2500000   0.4330127   0.0000000), wk =   0.2500000
        k(    5) = (  -0.2500000   0.1443376   0.0000000), wk =   0.2500000
        k(    6) = (   0.2500000   0.1443376   0.0000000), wk =   0.2500000
        k(    7) = (   0.5000000  -0.2886751   0.0000000), wk =   0.1250000
        k(    8) = (  -0.5000000  -0.2886751   0.0000000), wk =   0.1250000
        k(    9) = (  -0.2500000   0.4330127   0.0000000), wk =   0.2500000
        k(   10) = (   0.5000000   0.0000000   0.0000000), wk =   0.2500000

                       cryst. coord.
        k(    1) = (   0.0000000   0.0000000   0.0000000), wk =   0.1250000
        k(    2) = (   0.0000000   0.2500000   0.0000000), wk =   0.2500000
        k(    3) = (   0.0000000  -0.5000000   0.0000000), wk =   0.1250000
        k(    4) = (   0.2500000   0.2500000   0.0000000), wk =   0.2500000
        k(    5) = (  -0.2500000   0.2500000   0.0000000), wk =   0.2500000
        k(    6) = (   0.2500000   0.0000000   0.0000000), wk =   0.2500000
        k(    7) = (   0.5000000  -0.5000000   0.0000000), wk =   0.1250000
        k(    8) = (  -0.5000000   0.0000000   0.0000000), wk =   0.1250000
        k(    9) = (  -0.2500000   0.5000000   0.0000000), wk =   0.2500000
        k(   10) = (   0.5000000  -0.2500000   0.0000000), wk =   0.2500000

     Initial potential from superposition of free atoms

     starting charge  166.49957, renormalised to  171.00000

     negative rho (up, down):  7.796E-04 0.000E+00
     Starting wfcs are  117 randomized atomic wfcs

     Self-consistent Calculation

     iteration #  1     ecut=    30.00 Ry     beta= 0.30
     Davidson diagonalization with overlap
     ethr =  1.00E-02,  avg # of iterations =  6.3

     total energy              =   -2657.62156052 Ry
     estimated scf accuracy    <      13.21937619 Ry

[...]

     negative rho (up, down):  1.130E-06 0.000E+00

[...]

     End of self-consistent calculation

          k = 0.0000 0.0000 0.0000 (  4413 PWs)   bands (ev):

   -82.2546 -82.2537 -82.1883 -82.1877 -82.1799 -82.1703 -82.1699 -82.1042
   -82.1027 -45.8464 -45.8351 -45.6983 -45.6666 -45.6598 -45.6573 -45.6513
   -45.6412 -45.6340 -45.6181 -45.6144 -45.6082 -45.6059 -45.5963 -45.5959
   -45.5941 -45.5936 -45.5900 -45.5829 -45.5815 -45.5597 -45.5522 -45.5515
   -45.5140 -45.5126 -45.4880 -45.4866   2.3770   2.6416   2.9847   3.3657
     3.5646   3.7337   3.7407   3.7837   3.8548   4.2986   4.4048   4.6713
     4.7874   5.0311   5.0825   5.1119   5.1228   5.1617   5.1923   5.2048
     5.2318   5.2473   5.2644   5.2648   5.2928   5.2966   5.3225   5.3397
     5.3463   5.4912   5.5086   5.5290   5.5875   5.6439   5.7831   5.9226
     6.0474   6.1100   6.2081   6.2118   6.2196   6.2315   6.2395   6.3394
     6.3510   6.3557   6.4077   6.5041   6.7168   6.8404   6.8904   7.2263
     8.3064   9.4793   9.7858  13.2877  13.9251  13.9672  15.5440  15.6437
    17.5806  17.9093  20.0302  20.4212  22.7445  23.0423  25.1892

     occupation numbers
     1.0000   1.0000   1.0000   1.0000   1.0000   1.0000   1.0000   1.0000
     1.0000   1.0000   1.0000   1.0000   1.0000   1.0000   1.0000   1.0000
     1.0000   1.0000   1.0000   1.0000   1.0000   1.0000   1.0000   1.0000
     1.0000   1.0000   1.0000   1.0000   1.0000   1.0000   1.0000   1.0000
     1.0000   1.0000   1.0000   1.0000   1.0000   1.0000   1.0000   1.0000
     1.0000   1.0000   1.0000   1.0000   1.0000   1.0000   1.0000   1.0000
     1.0000   1.0000   1.0000   1.0000   1.0000   1.0000   1.0000   1.0000
     1.0000   1.0000   1.0000   1.0000   1.0000   1.0000   1.0000   1.0000
     1.0000   1.0000   1.0000   1.0000   1.0000   1.0000   1.0000   1.0000
     1.0000   1.0000   1.0000   1.0000   1.0000   1.0000   1.0000   1.0000
     1.0000   1.0000   1.0000   1.0000   1.0000   1.0000   1.0000   1.0000
     1.0000   1.0000   0.0000   0.0000   0.0000   0.0000   0.0000   0.0000
     0.0000   0.0000   0.0000   0.0000   0.0000   0.0000   0.0000

[...]

          k =-0.2500 0.1443 0.0000 (  4418 PWs)   bands (ev):

[...]

     the Fermi energy is     9.6640 ev

!    total energy              =   -2660.35590520 Ry
     estimated scf accuracy    <       0.00000094 Ry
     smearing contrib. (-TS)   =      -0.00025382 Ry
     internal energy E=F+TS    =   -2660.35565138 Ry

     The total energy is F=E-TS. E is the sum of the following terms:
     one-electron contribution =  -15141.87088081 Ry
     hartree contribution      =    7611.35922087 Ry
     xc contribution           =    -260.72113377 Ry
     ewald contribution        =    5130.87714233 Ry

     convergence has been achieved in  18 iterations

[...]

     Forces acting on atoms (cartesian axes, Ry/au):

     atom    1 type  1   force =    -0.01676505   -0.01267530   -0.04373108
     atom    2 type  1   force =    -0.01751649   -0.01319354   -0.04019648
     atom    3 type  1   force =    -0.00521610    0.00232237    0.00871276
     atom    4 type  1   force =     0.00522895   -0.00232923   -0.00773512
     atom    5 type  1   force =     0.01751440    0.01319359    0.03991266
     atom    6 type  1   force =     0.01676659    0.01268750    0.04339871
     atom    7 type  1   force =    -0.00060602    0.00043510    0.00546624
     atom    8 type  1   force =     0.00000373    0.00000567   -0.00039211
     atom    9 type  1   force =     0.00059000   -0.00044616   -0.00543557
     The non-local contrib.  to forces
     atom    1 type  1   force =     0.00040622    0.00063872    0.03900187
     atom    2 type  1   force =     0.00109698   -0.00369994   -0.01531874
     atom    3 type  1   force =     0.00189703    0.00033072    0.11870038
     atom    4 type  1   force =    -0.00190366   -0.00032320   -0.11817975
     atom    5 type  1   force =    -0.00111229    0.00370070    0.01476947
     atom    6 type  1   force =    -0.00040591   -0.00063533   -0.03939290
     atom    7 type  1   force =    -0.00205642    0.00163966   -0.09549109
[...]
                               -0.71  -6674.19      1.17
                               -0.25      1.17  -6674.96

     corecor stress (kbar)   -902.38     -0.03     -0.01
                               -0.03   -902.37      0.02
                               -0.01      0.02   -902.17

     ewald   stress (kbar) 585386.91  -1403.01   -310.76
                            -1403.01 587106.85   1443.75
                             -310.76   1443.75-700565.98

     hubbard stress (kbar)      0.00      0.00      0.00
                                0.00      0.00      0.00
                                0.00      0.00      0.00

     DFT-D   stress (kbar)      0.00      0.00      0.00
                                0.00      0.00      0.00
                                0.00      0.00      0.00

     XDM     stress (kbar)      0.00      0.00      0.00
                                0.00      0.00      0.00
                                0.00      0.00      0.00

     dft-nl  stress (kbar)      0.00      0.00      0.00
                                0.00      0.00      0.00
                                0.00      0.00      0.00

     TS-vdW  stress (kbar)      0.00      0.00      0.00
                                0.00      0.00      0.00
                                0.00      0.00      0.00

     BFGS Geometry Optimization
     Energy error            =      0.0E+00
     Gradient error          =      4.4E-02

     number of scf cycles    =   1
     number of bfgs steps    =   0

     energy   new            =   -2660.3559051965 Ry

     new trust radius        =       0.0485194553 bohr
     new conv_thr            =       0.0000010000 Ry

ATOMIC_POSITIONS (angstrom)
Ag            0.9717773183        1.9545935221        4.7810475079
Ag            0.9713796711        1.9543192772       11.9891979379
Ag            0.9778887589        1.9625299444       19.2213595919
Ag            0.0027670395       -0.0012325745       -0.0040932489
Ag            0.0092682191        0.0069817483        7.2274008714
Ag            0.0088724968        0.0067139380       14.4355256088
Ag            1.9609803088        0.9808792428        2.4049836096
Ag            1.9613029739        0.9806520006        9.6081635027
Ag            1.9616132135        0.9804129011       16.8117746188

     Writing output data file ./surface.save/
     NEW-OLD atomic charge density approx. for the potential

[...]

     Total force =     0.063140     Total SCF correction =     0.006373
     SCF correction compared to forces is large: reduce conv_thr to get better values

[...]

     Energy error            =      7.5E-03
     Gradient error          =      2.7E-02

[...]

     energy   old            =   -2660.3559051965 Ry
     energy   new            =   -2660.3634023977 Ry

     CASE: energy  _new < energy  _old

[...]

     iteration #  1     ecut=    30.00 Ry     beta= 0.30
     Davidson diagonalization with overlap
     c_bands:  1 eigenvalues not converged
     ethr =  1.00E-06,  avg # of iterations = 10.3

[...]

     WARNING: bfgs curvature condition failed, Theta= 0.966
     new trust radius        =       0.0457477029 bohr
     new conv_thr            =       0.0000002053 Ry

[...]

     WARNING: bfgs curvature condition failed, Theta= 0.893
     new trust radius        =       0.0091212098 bohr
     new conv_thr            =       0.0000000254 Ry

[...]

     iteration #  1     ecut=    30.00 Ry     beta= 0.30
     Davidson diagonalization with overlap
     c_bands:  1 eigenvalues not converged
     ethr =  1.00E-06,  avg # of iterations = 11.3

[...]

     Total force =     0.002852     Total SCF correction =     0.000275

[...]

     number of scf cycles    =  39
     number of bfgs steps    =  38

     energy   old            =   -2660.4139181588 Ry
     energy   new            =   -2660.4139670793 Ry

     CASE: energy  _new < energy  _old

     new trust radius        =       0.0191628142 bohr
     new conv_thr            =       0.0000000100 Ry

ATOMIC_POSITIONS (angstrom)
Ag            0.4453258362        1.7942976767        4.8701631607
Ag            0.4990743146        1.8483807244       11.9754635789
Ag            0.5924402110        1.9104075885       19.1291056149
Ag            0.3886261876        0.0508447570        0.0864792829
Ag            0.4813403249        0.1129181140        7.2435923207
Ag            0.5352082756        0.1670052609       14.3460537227
Ag            1.8727500831        0.9142577321        2.5168838329
Ag            1.9610207347        0.9807688917        9.6052940769
Ag            2.0500640324        1.0469692548       16.7023244093

     Writing output data file ./surface.save/
     NEW-OLD atomic charge density approx. for the potential

[...]

     Self-consistent Calculation

[...]

     total energy              =   -2660.41402721 Ry
     estimated scf accuracy    <       0.00000012 Ry

     iteration # 12     ecut=    30.00 Ry     beta= 0.30
     Davidson diagonalization with overlap
     ethr =  7.15E-11,  avg # of iterations =  1.0

[...]

     End of self-consistent calculation

[...]

          k =-0.2500 0.4330 0.0000 (  4451 PWs)   bands (ev):

[...]

          k = 0.5000 0.0000 0.0000 (  4451 PWs)   bands (ev):

   -82.2199 -82.2193 -82.2078 -82.2067 -82.1761 -82.1746 -82.1331 -82.1322
   -82.1244 -45.7272 -45.7243 -45.7211 -45.7191 -45.7065 -45.7052 -45.7010
   -45.6983 -45.6797 -45.6762 -45.6716 -45.6707 -45.6686 -45.6677 -45.6621
   -45.6602 -45.6260 -45.6246 -45.6099 -45.6087 -45.6034 -45.5992 -45.5898
   -45.5884 -45.5764 -45.5752 -45.5678   4.0331   4.0495   4.1371   4.1599
     4.2326   4.2726   4.3608   4.4353   4.4769   4.4903   4.5645   4.5921
     4.6811   4.6859   4.7363   4.7530   4.8495   4.9915   4.9984   5.0268
     5.1837   5.2009   5.3669   5.3897   5.4618   5.4681   5.4991   5.5475
     5.7659   5.8113   5.8175   5.8633   5.9894   6.0415   6.0800   6.0934
     6.1548   6.2806   6.4749   6.6265   6.7371   6.7815   6.8140   6.8533
     6.9522   9.1253   9.2592   9.5597   9.9917  10.6399  11.4454  12.4166
    13.4723  14.5963  15.3143  15.3183  15.4224  15.5531  15.6893  15.8909
    16.1449  16.5716  17.0068  17.0436  17.4845  17.5466  18.0061

     occupation numbers
     1.0000   1.0000   1.0000   1.0000   1.0000   1.0000   1.0000   1.0000
     1.0000   1.0000   1.0000   1.0000   1.0000   1.0000   1.0000   1.0000
     1.0000   1.0000   1.0000   1.0000   1.0000   1.0000   1.0000   1.0000
     1.0000   1.0000   1.0000   1.0000   1.0000   1.0000   1.0000   1.0000
     1.0000   1.0000   1.0000   1.0000   1.0000   1.0000   1.0000   1.0000
     1.0000   1.0000   1.0000   1.0000   1.0000   1.0000   1.0000   1.0000
     1.0000   1.0000   1.0000   1.0000   1.0000   1.0000   1.0000   1.0000
     1.0000   1.0000   1.0000   1.0000   1.0000   1.0000   1.0000   1.0000
     1.0000   1.0000   1.0000   1.0000   1.0000   1.0000   1.0000   1.0000
     1.0000   1.0000   1.0000   1.0000   1.0000   1.0000   1.0000   1.0000
     1.0000   1.0000   1.0000   0.9999   0.0000   0.0000   0.0000   0.0000
     0.0000   0.0000   0.0000   0.0000   0.0000   0.0000   0.0000   0.0000
     0.0000   0.0000   0.0000   0.0000   0.0000   0.0000   0.0000

     the Fermi energy is     9.6703 ev

!    total energy              =   -2660.41402722 Ry
     estimated scf accuracy    <          4.8E-09 Ry
     smearing contrib. (-TS)   =      -0.00000062 Ry
     internal energy E=F+TS    =   -2660.41402660 Ry

     The total energy is F=E-TS. E is the sum of the following terms:
     one-electron contribution =  -15835.75373039 Ry
     hartree contribution      =    7958.22595351 Ry
     xc contribution           =    -260.67834034 Ry
     ewald contribution        =    5477.79209062 Ry

     convergence has been achieved in  12 iterations

     negative rho (up, down):  7.208E-04 0.000E+00

     Forces acting on atoms (cartesian axes, Ry/au):

     atom    1 type  1   force =    -0.00015322   -0.00033541    0.00062537
     atom    2 type  1   force =     0.00051718   -0.00010398   -0.00067515
     atom    3 type  1   force =    -0.00019982   -0.00022563    0.00007404
     atom    4 type  1   force =     0.00018791    0.00022246    0.00020688
     atom    5 type  1   force =    -0.00050711    0.00012868   -0.00056334
     atom    6 type  1   force =     0.00014489    0.00032213    0.00004544
     atom    7 type  1   force =     0.00072259    0.00048314   -0.00088196
     atom    8 type  1   force =    -0.00000299   -0.00002112    0.00092526
     atom    9 type  1   force =    -0.00070944   -0.00047029    0.00024347
     The non-local contrib.  to forces
     atom    1 type  1   force =     0.00040340    0.00008112    0.01787557
     atom    2 type  1   force =     0.00011750   -0.00000563   -0.01011123
     atom    3 type  1   force =    -0.00001340   -0.00007009    0.10963661
     atom    4 type  1   force =     0.00001715    0.00006789   -0.10902831
     atom    5 type  1   force =    -0.00011921    0.00000544    0.00887769
     atom    6 type  1   force =    -0.00039474   -0.00008936   -0.01752819
     atom    7 type  1   force =     0.00056069    0.00039189   -0.10445122
     atom    8 type  1   force =    -0.00000862   -0.00000521    0.00087007
     atom    9 type  1   force =    -0.00054511   -0.00040223    0.10385276
     The ionic contribution  to forces
     atom    1 type  1   force =    -0.01366094   -0.02606441 -220.83719352
     atom    2 type  1   force =     0.04562383   -0.00444423  110.57517414
     atom    3 type  1   force =    -0.01992110   -0.02175655  436.00896199
     atom    4 type  1   force =     0.01945457    0.02153934 -435.90781336
     atom    5 type  1   force =    -0.04526687    0.00573744 -110.75847290
     atom    6 type  1   force =     0.01310229    0.02530381  220.86778830
     atom    7 type  1   force =     0.05462955    0.03264824 -332.42664789
     atom    8 type  1   force =     0.00024926   -0.00111791    0.26731878
     atom    9 type  1   force =    -0.05421061   -0.03184573  332.21088445
     The local contribution  to forces
     atom    1 type  1   force =     0.01303554    0.02563784  220.81994692
     atom    2 type  1   force =    -0.04512283    0.00436074 -110.56549829
     atom    3 type  1   force =     0.01970584    0.02152969 -436.11758891
     atom    4 type  1   force =    -0.01924890   -0.02130874  436.01620086
     atom    5 type  1   force =     0.04478044   -0.00563757  110.74878262
     atom    6 type  1   force =    -0.01249353   -0.02488763 -220.85024382
     atom    7 type  1   force =    -0.05434742   -0.03257818  332.52948232
     atom    8 type  1   force =    -0.00024437    0.00110008   -0.26727108
     atom    9 type  1   force =     0.05393538    0.03179027 -332.31377815
     The core correction contribution to forces
     atom    1 type  1   force =     0.00000087    0.00000020   -0.00013355
     atom    2 type  1   force =     0.00000029    0.00000053   -0.00009212
     atom    3 type  1   force =    -0.00000051   -0.00000146   -0.00087277
     atom    4 type  1   force =     0.00000024    0.00000072    0.00086690
     atom    5 type  1   force =    -0.00000109    0.00000098    0.00010204
     atom    6 type  1   force =    -0.00000176    0.00000056    0.00013321
     atom    7 type  1   force =     0.00000240    0.00000282    0.00054264
     atom    8 type  1   force =     0.00000063    0.00000030   -0.00000495
     atom    9 type  1   force =    -0.00000356   -0.00000154   -0.00053812
     The Hubbard contrib.    to forces
     atom    1 type  1   force =     0.00000000    0.00000000    0.00000000
     atom    2 type  1   force =     0.00000000    0.00000000    0.00000000
     atom    3 type  1   force =     0.00000000    0.00000000    0.00000000
     atom    4 type  1   force =     0.00000000    0.00000000    0.00000000
     atom    5 type  1   force =     0.00000000    0.00000000    0.00000000
     atom    6 type  1   force =     0.00000000    0.00000000    0.00000000
     atom    7 type  1   force =     0.00000000    0.00000000    0.00000000
     atom    8 type  1   force =     0.00000000    0.00000000    0.00000000
     atom    9 type  1   force =     0.00000000    0.00000000    0.00000000
     The SCF correction term to forces
     atom    1 type  1   force =     0.00006886    0.00000713    0.00012757
     atom    2 type  1   force =    -0.00010068   -0.00001812   -0.00015003
     atom    3 type  1   force =     0.00003028    0.00007007   -0.00006527
     atom    4 type  1   force =    -0.00003421   -0.00007946   -0.00002158
     atom    5 type  1   force =     0.00010056    0.00001968    0.00014484
     atom    6 type  1   force =    -0.00006643   -0.00000797   -0.00010644
     atom    7 type  1   force =    -0.00012170    0.00001564    0.00018983
     atom    8 type  1   force =     0.00000105   -0.00000111    0.00001007
     atom    9 type  1   force =     0.00011541   -0.00001378   -0.00017983

     Total force =     0.002319     Total SCF correction =     0.000465
     SCF correction compared to forces is large: reduce conv_thr to get better values

     Computing stress (Cartesian axis) and pressure

     negative rho (up, down):  7.208E-04 0.000E+00
          total   stress  (Ry/bohr**3)                   (kbar)     P=      -63.48
  -0.00042299  -0.00000644  -0.00001223          -62.22       -0.95       -1.80
  -0.00000644  -0.00041281  -0.00000999           -0.95      -60.73       -1.47
  -0.00001223  -0.00000999  -0.00045870           -1.80       -1.47      -67.48

     kinetic stress (kbar)  37002.09      1.23      0.76
                                1.23  37000.17      0.58
                                0.76      0.58  37046.43

     local   stress (kbar)**********    248.98    219.63
                              248.98**********    177.41
                              219.63    177.411351694.79

     nonloc. stress (kbar)   4354.36     -0.09      0.30
                               -0.09   4354.44      0.25
                                0.30      0.25   4329.69

     hartree stress (kbar) 690808.13    -96.86    -82.43
                              -96.86 690959.19    -66.57
                              -82.43    -66.57-649785.67

     exc-cor stress (kbar)  -6672.74     -0.10     -0.12
                               -0.10  -6672.58     -0.10
                               -0.12     -0.10  -6675.32

     corecor stress (kbar)   -902.34      0.00     -0.00
                                0.00   -902.34     -0.00
                               -0.00     -0.00   -902.18

     ewald   stress (kbar) 619685.57   -154.11   -139.93
                             -154.11 619925.97   -113.04
                             -139.93   -113.04-735775.22

     hubbard stress (kbar)      0.00      0.00      0.00
                                0.00      0.00      0.00
                                0.00      0.00      0.00

     DFT-D   stress (kbar)      0.00      0.00      0.00
                                0.00      0.00      0.00
                                0.00      0.00      0.00

     XDM     stress (kbar)      0.00      0.00      0.00
                                0.00      0.00      0.00
                                0.00      0.00      0.00

     dft-nl  stress (kbar)      0.00      0.00      0.00
                                0.00      0.00      0.00
                                0.00      0.00      0.00

     TS-vdW  stress (kbar)      0.00      0.00      0.00
                                0.00      0.00      0.00
                                0.00      0.00      0.00

     Energy error            =      6.0E-05
     Gradient error          =      9.3E-04

     bfgs converged in  40 scf cycles and  39 bfgs steps
     (criteria: energy <  1.0E-04 Ry, force <  1.0E-03 Ry/Bohr)

     End of BFGS Geometry Optimization

     Final energy   =   -2660.4140272161 Ry

     File ./surface.bfgs deleted, as requested
Begin final coordinates

ATOMIC_POSITIONS (angstrom)
Ag            0.4453258362        1.7942976767        4.8701631607
Ag            0.4990743146        1.8483807244       11.9754635789
Ag            0.5924402110        1.9104075885       19.1291056149
Ag            0.3886261876        0.0508447570        0.0864792829
Ag            0.4813403249        0.1129181140        7.2435923207
Ag            0.5352082756        0.1670052609       14.3460537227
Ag            1.8727500831        0.9142577321        2.5168838329
Ag            1.9610207347        0.9807688917        9.6052940769
Ag            2.0500640324        1.0469692548       16.7023244093
End final coordinates

     Writing output data file ./surface.save/

     General routines

     Parallel routines

   This run was terminated on:   4: 2:24  10Dec2021

   JOB DONE.