     Program PWSCF v.6.7MaX starts on 10Dec2021 at  3:51:24

     R & G space division:  proc/nbgrp/npool/nimage =      16
     Reading input from au_surface.111.qe.7656379.1_1_3.in

     Current dimensions of program PWSCF are:
     Max number of different atomic species (ntypx) = 10
     Max number of k-points (npk) =  40000
     Max angular momentum in pseudopotentials (lmaxx) =  3

     bravais-lattice index     =           14
     lattice parameter (alat)  =       5.5738  a.u.
     unit-cell volume          =    1610.4619 (a.u.)^3
     number of atoms/cell      =            9
     number of atomic types    =            1
     number of electrons       =        99.00
     number of Kohn-Sham states=           60
     kinetic-energy cutoff     =      30.0000  Ry
     charge density cutoff     =     300.0000  Ry
     scf convergence threshold =      1.0E-06
     mixing beta               =       0.3000
     number of iterations used =            8  plain     mixing
     energy convergence thresh.=      1.0E-04
     force convergence thresh. =      1.0E-03
     Exchange-correlation= SLA  PW   PBE  PBE
                           (   1   4   3   4   0   0   0)
     nstep                     =           50

     celldm(1)=   5.573842  celldm(2)=   1.000000  celldm(3)=  10.738804
     celldm(4)=   0.000000  celldm(5)=   0.000000  celldm(6)=  -0.500000

     crystal axes: (cart. coord. in units of alat)
               a(1) = (   1.000000   0.000000   0.000000 )
               a(2) = (  -0.500000   0.866025   0.000000 )
               a(3) = (   0.000000   0.000000  10.738804 )

     reciprocal axes: (cart. coord. in units 2 pi/alat)
               b(1) = (  1.000000  0.577350 -0.000000 )
               b(2) = (  0.000000  1.154701  0.000000 )
               b(3) = (  0.000000 -0.000000  0.093120 )

     PseudoPot. # 1 for Au read from file:
     /expanse/lustre/projects/csd622/tpascal/nano110/qe/pseudo/au_pbe_v1.uspp.F.UPF
     MD5 check sum: 9d7f43293ad2c663164586bc4b293ffc
     Pseudo is Ultrasoft + core correction, Zval = 11.0
     Generated by new atomic code, or converted to UPF format
     Using radial grid of  985 points,  7 beta functions with:
                l(1) =   0
                l(2) =   0
                l(3) =   1
                l(4) =   1
                l(5) =   2
                l(6) =   2
                l(7) =   3
     Q(r) pseudized with  6 coefficients,  rinner =    1.900   1.900   1.900
                                                       1.900   1.900   1.900
                                                       1.900

     atomic species   valence    mass     pseudopotential
        Au            11.00   196.96655     Au( 1.00)

     No symmetry found

                                    s                        frac. trans.

      isym =  1     identity

 cryst.   s( 1) = (     1          0          0      )
                  (     0          1          0      )
                  (     0          0          1      )

 cart.    s( 1) = (  1.0000000  0.0000000  0.0000000 )
                  (  0.0000000  1.0000000  0.0000000 )
                  (  0.0000000  0.0000000  1.0000000 )

     point group C_1 (1)
     there are  1 classes
     the character table:

       E
A      1.00

     the symmetry operations in each class and the name of the first element:

     E        1
          identity

   Cartesian axes

     site n.     atom                  positions (alat units)
         1           Au  tau(   1) = (   0.3333329   0.6666671   1.6329911  )
         2           Au  tau(   2) = (   0.3333329   0.6666671   4.0824766  )
         3           Au  tau(   3) = (   0.3333329   0.6666671   6.5319622  )
         4           Au  tau(   4) = (   0.0000000   0.0000000   0.0000000  )
         5           Au  tau(   5) = (   0.0000000   0.0000000   2.4494855  )
         6           Au  tau(   6) = (   0.0000000   0.0000000   4.8989710  )
         7           Au  tau(   7) = (   0.6666671   0.3333329   0.8164944  )
         8           Au  tau(   8) = (   0.6666671   0.3333329   3.2659799  )
         9           Au  tau(   9) = (   0.6666671   0.3333329   5.7154654  )

   Crystallographic axes

     site n.     atom                  positions (cryst. coord.)
         1           Au  tau(   1) = (  0.7182333  0.7698009  0.1520645  )
         2           Au  tau(   2) = (  0.7182333  0.7698009  0.3801612  )
         3           Au  tau(   3) = (  0.7182333  0.7698009  0.6082579  )
         4           Au  tau(   4) = (  0.0000000  0.0000000  0.0000000  )
         5           Au  tau(   5) = (  0.0000000  0.0000000  0.2280967  )
         6           Au  tau(   6) = (  0.0000000  0.0000000  0.4561933  )
         7           Au  tau(   7) = (  0.8591169  0.3848997  0.0760322  )
         8           Au  tau(   8) = (  0.8591169  0.3848997  0.3041288  )
         9           Au  tau(   9) = (  0.8591169  0.3848997  0.5322255  )

     number of k points=    10  Gaussian smearing, width (Ry)=  0.0030
                       cart. coord. in units 2pi/alat
        k(    1) = (   0.0000000   0.0000000   0.0000000), wk =   0.1250000
        k(    2) = (   0.0000000   0.2886751   0.0000000), wk =   0.2500000
        k(    3) = (   0.0000000  -0.5773503   0.0000000), wk =   0.1250000
        k(    4) = (   0.2500000   0.4330127   0.0000000), wk =   0.2500000
        k(    5) = (  -0.2500000   0.1443376   0.0000000), wk =   0.2500000
        k(    6) = (   0.2500000   0.1443376   0.0000000), wk =   0.2500000
        k(    7) = (   0.5000000  -0.2886751   0.0000000), wk =   0.1250000
        k(    8) = (  -0.5000000  -0.2886751   0.0000000), wk =   0.1250000
        k(    9) = (  -0.2500000   0.4330127   0.0000000), wk =   0.2500000
        k(   10) = (   0.5000000   0.0000000   0.0000000), wk =   0.2500000

                       cryst. coord.
        k(    1) = (   0.0000000   0.0000000   0.0000000), wk =   0.1250000
        k(    2) = (   0.0000000   0.2500000   0.0000000), wk =   0.2500000
        k(    3) = (   0.0000000  -0.5000000   0.0000000), wk =   0.1250000
        k(    4) = (   0.2500000   0.2500000   0.0000000), wk =   0.2500000
        k(    5) = (  -0.2500000   0.2500000   0.0000000), wk =   0.2500000
        k(    6) = (   0.2500000   0.0000000   0.0000000), wk =   0.2500000
        k(    7) = (   0.5000000  -0.5000000   0.0000000), wk =   0.1250000
        k(    8) = (  -0.5000000   0.0000000   0.0000000), wk =   0.1250000
        k(    9) = (  -0.2500000   0.5000000   0.0000000), wk =   0.2500000
        k(   10) = (   0.5000000  -0.2500000   0.0000000), wk =   0.2500000

     Check: negative core charge=   -0.000002

     Initial potential from superposition of free atoms

     starting charge   98.99890, renormalised to   99.00000

     negative rho (up, down):  3.895E-06 0.000E+00
     Starting wfcs are   81 randomized atomic wfcs

     Self-consistent Calculation

     iteration #  1     ecut=    30.00 Ry     beta= 0.30
     Davidson diagonalization with overlap
     ethr =  1.00E-02,  avg # of iterations =  3.5

     Threshold (ethr) on eigenvalues was too large:
     Diagonalizing with lowered threshold

     Davidson diagonalization with overlap
     ethr =  5.26E-04,  avg # of iterations =  1.4

     negative rho (up, down):  1.296E-06 0.000E+00

     total energy              =   -1034.65340690 Ry
     estimated scf accuracy    <       0.56796492 Ry

[...]

     End of self-consistent calculation

          k = 0.0000 0.0000 0.0000 (  4425 PWs)   bands (ev):

    -1.0268  -0.7132  -0.3278   0.2274   0.7448   1.1766   1.2860   1.4557
     1.4761   2.5502   2.6692   3.1069   3.2672   3.4599   3.6860   3.7604
     3.7861   3.8504   3.8578   3.8864   3.9361   3.9692   3.9861   4.0014
     4.0023   4.0072   4.0089   4.0550   4.0678   4.2138   4.2552   4.3228
     4.3644   4.4629   4.5273   4.7182   4.9837   4.9923   5.1848   5.2985
     5.3659   5.3833   5.4048   5.4811   5.5218   5.5834   5.5947   5.6698
     5.6896   6.0747   6.2159   6.3873   6.4849   7.7862   8.0661  11.8851
    12.6669  12.8222  14.1556  14.4564

     occupation numbers
     1.0000   1.0000   1.0000   1.0000   1.0000   1.0000   1.0000   1.0000
     1.0000   1.0000   1.0000   1.0000   1.0000   1.0000   1.0000   1.0000
     1.0000   1.0000   1.0000   1.0000   1.0000   1.0000   1.0000   1.0000
     1.0000   1.0000   1.0000   1.0000   1.0000   1.0000   1.0000   1.0000
     1.0000   1.0000   1.0000   1.0000   1.0000   1.0000   1.0000   1.0000
     1.0000   1.0000   1.0000   1.0000   1.0000   1.0000   1.0000   1.0000
     1.0000   1.0000   1.0000   1.0000   1.0000   1.0000   0.9361   0.0000
     0.0000   0.0000   0.0000   0.0000

[...]

          k =-0.2500 0.1443 0.0000 (  4464 PWs)   bands (ev):

[...]

     the Fermi energy is     8.1101 ev

!    total energy              =   -1034.70356211 Ry
     estimated scf accuracy    <       0.00000032 Ry
     smearing contrib. (-TS)   =      -0.00055028 Ry
     internal energy E=F+TS    =   -1034.70301183 Ry

     The total energy is F=E-TS. E is the sum of the following terms:
     one-electron contribution =   -4555.40204983 Ry
     hartree contribution      =    2375.40782339 Ry
     xc contribution           =    -560.03111305 Ry
     ewald contribution        =    1705.32232765 Ry

     convergence has been achieved in  18 iterations

[...]

     Forces acting on atoms (cartesian axes, Ry/au):

     atom    1 type  1   force =    -0.01561099   -0.01394146   -0.05493194
     atom    2 type  1   force =    -0.01750137   -0.01357228   -0.05336297
     atom    3 type  1   force =    -0.00533399    0.00256705    0.01452014
     atom    4 type  1   force =     0.00534085   -0.00258252   -0.01492103
     atom    5 type  1   force =     0.01751758    0.01358020    0.05333007
     atom    6 type  1   force =     0.01561376    0.01394021    0.05541240
     atom    7 type  1   force =    -0.00169347    0.00088385    0.00892838
     atom    8 type  1   force =    -0.00001268   -0.00000341   -0.00024951
     atom    9 type  1   force =     0.00168030   -0.00087165   -0.00872553
     The non-local contrib.  to forces
     atom    1 type  1   force =     0.00272516    0.00132856   -0.00125460
     atom    2 type  1   force =    -0.00213861   -0.00280388   -0.02584075
     atom    3 type  1   force =    -0.00309645    0.00127583   -0.03143065
     atom    4 type  1   force =     0.00311403   -0.00128381    0.03123827
     atom    5 type  1   force =     0.00215422    0.00281225    0.02602634
     atom    6 type  1   force =    -0.00272690   -0.00133016    0.00181031
     atom    7 type  1   force =    -0.00165193    0.00047061   -0.02382527
     atom    8 type  1   force =    -0.00000780    0.00000076   -0.00009525
     atom    9 type  1   force =     0.00165198   -0.00045938    0.02425259
     The ionic contribution  to forces
     atom    1 type  1   force =    -0.49785119   -0.34432983  -71.95697405
     atom    2 type  1   force =    -0.49785118   -0.34432982   35.09506220
     atom    3 type  1   force =    -0.15580666    0.05816906  142.40527444
     atom    4 type  1   force =     0.15581212   -0.05817458 -142.40534577
[...]

     negative rho (up, down):  6.808E-06 0.000E+00
          total   stress  (Ry/bohr**3)                   (kbar)     P=       13.09
  -0.00016399  -0.00002748  -0.00001538          -24.12       -4.04       -2.26
  -0.00002748  -0.00006791   0.00012468           -4.04       -9.99       18.34
  -0.00001538   0.00012468   0.00049889           -2.26       18.34       73.39

     kinetic stress (kbar)  13787.08     20.36      2.01
                               20.36  13777.98    -24.33
                                2.01    -24.33  13817.04

     local   stress (kbar)-404668.38    645.32    142.22
                              645.32-405473.00   -607.64
                              142.22   -607.64 438595.34

     nonloc. stress (kbar)  -8690.71     -0.40     -0.95
                               -0.40  -8687.80     -0.33
                               -0.95     -0.33  -8665.86

     hartree stress (kbar) 211607.58   -200.82    -41.90
                             -200.82 211860.07    168.39
                              -41.90    168.39-206489.80

     exc-cor stress (kbar)  35646.03     -0.90     -0.34
                               -0.90  35647.44      1.28
                               -0.34      1.28  35647.20

     corecor stress (kbar) -41145.23     -1.78     -0.13
                               -1.78 -41145.22      1.63
                               -0.13      1.63 -41150.44

     ewald   stress (kbar) 193439.51   -465.82   -103.18
                             -465.82 194010.55    479.34
                             -103.18    479.34-231680.10

     hubbard stress (kbar)      0.00      0.00      0.00
                                0.00      0.00      0.00
                                0.00      0.00      0.00

     DFT-D   stress (kbar)      0.00      0.00      0.00
                                0.00      0.00      0.00
                                0.00      0.00      0.00

     XDM     stress (kbar)      0.00      0.00      0.00
                                0.00      0.00      0.00
                                0.00      0.00      0.00

     dft-nl  stress (kbar)      0.00      0.00      0.00
                                0.00      0.00      0.00
                                0.00      0.00      0.00

     TS-vdW  stress (kbar)      0.00      0.00      0.00
                                0.00      0.00      0.00
                                0.00      0.00      0.00

     BFGS Geometry Optimization
     Energy error            =      0.0E+00
     Gradient error          =      5.5E-02

     number of scf cycles    =   1
     number of bfgs steps    =   0

     energy   new            =   -1034.7035621090 Ry

     new trust radius        =       0.0592338854 bohr
     new conv_thr            =       0.0000010000 Ry

ATOMIC_POSITIONS (angstrom)
Au            0.9749210178        1.9589904946        4.7875202694
Au            0.9739206758        1.9591858572       12.0132305319
Au            0.9803593766        1.9677264268       19.2740327266
Au            0.0028262560       -0.0013666109       -0.0078958714
Au            0.0092699031        0.0071863328        7.2531010579
Au            0.0082624463        0.0073768431       14.4790829795
Au            1.9654718548        0.9836497156        2.4130156930
Au            1.9663612919        0.9831801979        9.6330389648
Au            1.9672571778        0.9827207428       16.8534336483

     Writing output data file ./surface.save/
     NEW-OLD atomic charge density approx. for the potential

[...]

     Energy error            =      1.1E-02
     Gradient error          =      2.5E-02

[...]

     energy   old            =   -1034.7035621090 Ry
     energy   new            =   -1034.7141989675 Ry

     CASE: energy  _new < energy  _old

[...]

     iteration #  1     ecut=    30.00 Ry     beta= 0.30
     Davidson diagonalization with overlap
     c_bands:  1 eigenvalues not converged
     ethr =  1.00E-06,  avg # of iterations = 15.3

[...]

     Total force =     0.013302     Total SCF correction =     0.001485
     SCF correction compared to forces is large: reduce conv_thr to get better values

[...]

     Total force =     0.002810     Total SCF correction =     0.000245

[...]

     number of scf cycles    =  48
     number of bfgs steps    =  47

     energy   old            =   -1034.7629085531 Ry
     energy   new            =   -1034.7629391271 Ry

     CASE: energy  _new < energy  _old

     new trust radius        =       0.0227224889 bohr
     new conv_thr            =       0.0000000100 Ry

ATOMIC_POSITIONS (angstrom)
Au            0.4240226178        1.7962005607        4.8976151284
Au            0.5236958326        1.8537390840       12.0056106503
Au            0.5986460018        1.9111837190       19.2237802706
Au            0.3849889344        0.0546985388        0.0416177050
Au            0.4601161438        0.1129753786        7.2606851990
Au            0.5584020207        0.1703053547       14.3720871566
Au            1.8789045835        0.9069463136        2.5206621414
Au            1.9661268271        0.9834017169        9.6308877982
Au            2.0537470381        1.0591993339       16.7456139504

     Writing output data file ./surface.save/
     NEW-OLD atomic charge density approx. for the potential

     Check: negative core charge=   -0.000002

[...]

     Self-consistent Calculation

[...]

     Threshold (ethr) on eigenvalues was too large:
     Diagonalizing with lowered threshold

     Davidson diagonalization with overlap
     ethr =  4.40E-08,  avg # of iterations =  4.9

[...]

     total energy              =   -1034.76294769 Ry
     estimated scf accuracy    <       0.00000061 Ry

     iteration # 15     ecut=    30.00 Ry     beta= 0.30
     Davidson diagonalization with overlap
     ethr =  1.52E-11,  avg # of iterations =  1.0

[...]

     End of self-consistent calculation

[...]

          k =-0.2500 0.4330 0.0000 (  4489 PWs)   bands (ev):

[...]

          k = 0.5000 0.0000 0.0000 (  4489 PWs)   bands (ev):

     2.0461   2.0825   2.2181   2.2413   2.3610   2.4461   2.6098   2.6157
     2.8037   2.8205   2.9606   3.0197   3.1570   3.1814   3.2504   3.2762
     3.3274   3.4179   3.4462   3.5049   3.6713   3.7713   3.9155   3.9814
     4.2040   4.2077   4.2388   4.2573   4.6357   4.6838   4.7171   4.8247
     4.9778   5.0248   5.1207   5.1234   5.2382   5.4437   5.7405   5.9921
     6.1367   6.1721   6.1983   6.3076   6.4270   7.7241   7.8493   8.0692
     8.4260   8.9977   9.7236  10.5667  11.4604  12.2670  13.0499  13.0622
    13.3530  13.5027  13.7339  14.0400

     occupation numbers
     1.0000   1.0000   1.0000   1.0000   1.0000   1.0000   1.0000   1.0000
     1.0000   1.0000   1.0000   1.0000   1.0000   1.0000   1.0000   1.0000
     1.0000   1.0000   1.0000   1.0000   1.0000   1.0000   1.0000   1.0000
     1.0000   1.0000   1.0000   1.0000   1.0000   1.0000   1.0000   1.0000
     1.0000   1.0000   1.0000   1.0000   1.0000   1.0000   1.0000   1.0000
     1.0000   1.0000   1.0000   1.0000   1.0000   1.0000   1.0000   0.8086
     0.0000   0.0000   0.0000   0.0000   0.0000   0.0000   0.0000   0.0000
     0.0000   0.0000   0.0000   0.0000

     the Fermi energy is     8.0944 ev

!    total energy              =   -1034.76294769 Ry
     estimated scf accuracy    <          8.4E-09 Ry
     smearing contrib. (-TS)   =      -0.00045317 Ry
     internal energy E=F+TS    =   -1034.76249452 Ry

     The total energy is F=E-TS. E is the sum of the following terms:
     one-electron contribution =   -4743.74343523 Ry
     hartree contribution      =    2469.59202219 Ry
     xc contribution           =    -559.98217787 Ry
     ewald contribution        =    1799.37109639 Ry

     convergence has been achieved in  15 iterations

     negative rho (up, down):  7.615E-06 0.000E+00

     Forces acting on atoms (cartesian axes, Ry/au):

     atom    1 type  1   force =     0.00045926   -0.00045218   -0.00064280
     atom    2 type  1   force =    -0.00005561   -0.00013815   -0.00027681
     atom    3 type  1   force =    -0.00024206    0.00006080   -0.00004917
     atom    4 type  1   force =     0.00023661   -0.00005819    0.00000491
     atom    5 type  1   force =    -0.00001320    0.00014651    0.00021214
     atom    6 type  1   force =    -0.00038124    0.00047058   -0.00032711
     atom    7 type  1   force =     0.00004461    0.00082766    0.00019206
     atom    8 type  1   force =     0.00001939   -0.00001409    0.00066179
     atom    9 type  1   force =    -0.00006777   -0.00084296    0.00022500
     The non-local contrib.  to forces
     atom    1 type  1   force =     0.00060241   -0.00004930    0.00202693
     atom    2 type  1   force =    -0.00022052   -0.00024387   -0.01119400
     atom    3 type  1   force =    -0.00024160    0.00002985   -0.03499121
     atom    4 type  1   force =     0.00023926   -0.00002613    0.03504948
     atom    5 type  1   force =     0.00016047    0.00025159    0.01127675
     atom    6 type  1   force =    -0.00053822    0.00005401   -0.00227844
     atom    7 type  1   force =     0.00013029    0.00081359   -0.01594612
     atom    8 type  1   force =     0.00003166   -0.00000327    0.00008032
     atom    9 type  1   force =    -0.00014437   -0.00081637    0.01595624
     The ionic contribution  to forces
     atom    1 type  1   force =     0.01013807   -0.01127902  -73.95353730
     atom    2 type  1   force =     0.00165496    0.00051227   36.84509019
     atom    3 type  1   force =    -0.00896099   -0.00009656  143.72821902
     atom    4 type  1   force =     0.00869428    0.00022604 -143.69854617
     atom    5 type  1   force =    -0.00302715   -0.00045318  -36.84211575
     atom    6 type  1   force =    -0.00873618    0.01137493   73.85374063
     atom    7 type  1   force =     0.00198875    0.02236988 -110.55585694
     atom    8 type  1   force =     0.00042748   -0.00021602    0.06806346
     atom    9 type  1   force =    -0.00217922   -0.02243833  110.55494286
     The local contribution  to forces
     atom    1 type  1   force =    -0.01034148    0.01073910   73.94971152
     atom    2 type  1   force =    -0.00139792   -0.00032443  -36.83153203
     atom    3 type  1   force =     0.00895564    0.00012205 -143.67386621
     atom    4 type  1   force =    -0.00869256   -0.00025028  143.64430192
     atom    5 type  1   force =     0.00276472    0.00026475   36.82809545
     atom    6 type  1   force =     0.00895914   -0.01082091  -73.85094352
     atom    7 type  1   force =    -0.00212165   -0.02235370  110.56742457
     atom    8 type  1   force =    -0.00044372    0.00020417   -0.06756201
     atom    9 type  1   force =     0.00231145    0.02241096 -110.56599555
     The core correction contribution to forces
     atom    1 type  1   force =     0.00003744    0.00013177    0.00122798
     atom    2 type  1   force =    -0.00007590   -0.00007047   -0.00266119
     atom    3 type  1   force =    -0.00001293   -0.00000659   -0.01935661
     atom    4 type  1   force =     0.00001481    0.00000192    0.01932445
     atom    5 type  1   force =     0.00007302    0.00006831    0.00269809
     atom    6 type  1   force =    -0.00004577   -0.00013366   -0.00097823
     atom    7 type  1   force =     0.00005272   -0.00000289    0.00474980
     atom    8 type  1   force =     0.00000601    0.00000123   -0.00018939
     atom    9 type  1   force =    -0.00005565    0.00000177   -0.00486049
     The Hubbard contrib.    to forces
     atom    1 type  1   force =     0.00000000    0.00000000    0.00000000
     atom    2 type  1   force =     0.00000000    0.00000000    0.00000000
     atom    3 type  1   force =     0.00000000    0.00000000    0.00000000
     atom    4 type  1   force =     0.00000000    0.00000000    0.00000000
     atom    5 type  1   force =     0.00000000    0.00000000    0.00000000
     atom    6 type  1   force =     0.00000000    0.00000000    0.00000000
     atom    7 type  1   force =     0.00000000    0.00000000    0.00000000
     atom    8 type  1   force =     0.00000000    0.00000000    0.00000000
     atom    9 type  1   force =     0.00000000    0.00000000    0.00000000
     The SCF correction term to forces
     atom    1 type  1   force =     0.00002553    0.00000536   -0.00005976
     atom    2 type  1   force =    -0.00001351   -0.00001157    0.00003238
     atom    3 type  1   force =     0.00002055    0.00001213   -0.00004199
     atom    4 type  1   force =    -0.00001646   -0.00000966   -0.00011259
     atom    5 type  1   force =     0.00001847    0.00001511    0.00026978
     atom    6 type  1   force =    -0.00001749   -0.00000371    0.00014461
     atom    7 type  1   force =    -0.00000277    0.00000086   -0.00016708
     atom    8 type  1   force =     0.00000066   -0.00000011    0.00028157
     atom    9 type  1   force =     0.00000274   -0.00000089    0.00019411

     Total force =     0.001876     Total SCF correction =     0.000510
     SCF correction compared to forces is large: reduce conv_thr to get better values

     Computing stress (Cartesian axis) and pressure

     negative rho (up, down):  7.615E-06 0.000E+00
          total   stress  (Ry/bohr**3)                   (kbar)     P=       -7.09
  -0.00007388  -0.00000635  -0.00001073          -10.87       -0.93       -1.58
  -0.00000635  -0.00006406  -0.00000814           -0.93       -9.42       -1.20
  -0.00001073  -0.00000814  -0.00000671           -1.58       -1.20       -0.99

     kinetic stress (kbar)  13776.84      1.51      2.11
                                1.51  13774.83      1.72
                                2.11      1.72  13833.22

     local   stress (kbar)-422942.71     72.41     62.44
                               72.41-423048.86     47.51
                               62.44     47.51 457229.54

     nonloc. stress (kbar)  -8705.93     -0.12     -0.26
                               -0.12  -8705.88     -0.17
                               -0.26     -0.17  -8680.44

     hartree stress (kbar) 220549.56    -22.34    -17.70
                              -22.34 220582.21    -13.39
                              -17.70    -13.39-215550.81

     exc-cor stress (kbar)  35648.66     -0.12     -0.14
                               -0.12  35648.85     -0.10
                               -0.14     -0.10  35646.18

     corecor stress (kbar) -41144.11     -0.07     -0.17
                               -0.07 -41144.07     -0.14
                               -0.17     -0.14 -41149.04

     ewald   stress (kbar) 202806.82    -52.21    -47.86
                              -52.21 202883.50    -36.63
                              -47.86    -36.63-241329.64

     hubbard stress (kbar)      0.00      0.00      0.00
                                0.00      0.00      0.00
                                0.00      0.00      0.00

     DFT-D   stress (kbar)      0.00      0.00      0.00
                                0.00      0.00      0.00
                                0.00      0.00      0.00

     XDM     stress (kbar)      0.00      0.00      0.00
                                0.00      0.00      0.00
                                0.00      0.00      0.00

     dft-nl  stress (kbar)      0.00      0.00      0.00
                                0.00      0.00      0.00
                                0.00      0.00      0.00

     TS-vdW  stress (kbar)      0.00      0.00      0.00
                                0.00      0.00      0.00
                                0.00      0.00      0.00

     Energy error            =      8.6E-06
     Gradient error          =      8.4E-04

     bfgs converged in  49 scf cycles and  48 bfgs steps
     (criteria: energy <  1.0E-04 Ry, force <  1.0E-03 Ry/Bohr)

     End of BFGS Geometry Optimization

     Final energy   =   -1034.7629476949 Ry

     File ./surface.bfgs deleted, as requested
Begin final coordinates

ATOMIC_POSITIONS (angstrom)
Au            0.4240226178        1.7962005607        4.8976151284
Au            0.5236958326        1.8537390840       12.0056106503
Au            0.5986460018        1.9111837190       19.2237802706
Au            0.3849889344        0.0546985388        0.0416177050
Au            0.4601161438        0.1129753786        7.2606851990
Au            0.5584020207        0.1703053547       14.3720871566
Au            1.8789045835        0.9069463136        2.5206621414
Au            1.9661268271        0.9834017169        9.6308877982
Au            2.0537470381        1.0591993339       16.7456139504
End final coordinates

     Writing output data file ./surface.save/

     General routines

     Parallel routines

   This run was terminated on:   4: 2:33  10Dec2021

   JOB DONE.