     Program PWSCF v.6.7MaX starts on  9Dec2021 at 17:50:26

     R & G space division:  proc/nbgrp/npool/nimage =      32
     Reading input from au_surface.110.qe.in

     Current dimensions of program PWSCF are:
     Max number of different atomic species (ntypx) = 10
     Max number of k-points (npk) =  40000
     Max angular momentum in pseudopotentials (lmaxx) =  3

     Found symmetry operation: I + (  0.0000  0.3333  0.0000)
     This is a supercell, fractional translations are disabled

     bravais-lattice index     =            8
     lattice parameter (alat)  =      23.1203  a.u.
     unit-cell volume          =    9202.6773 (a.u.)^3
     number of atoms/cell      =           18
     number of atomic types    =            1
     number of electrons       =       198.00
     number of Kohn-Sham states=          119
     kinetic-energy cutoff     =      30.0000  Ry
     charge density cutoff     =     300.0000  Ry
     scf convergence threshold =      1.0E-06
     mixing beta               =       0.3000
     number of iterations used =            8  plain     mixing
     energy convergence thresh.=      1.0E-04
     force convergence thresh. =      1.0E-03
     Exchange-correlation= SLA  PW   PBE  PBE
                           (   1   4   3   4   0   0   0)
     nstep                     =           50

     celldm(1)=  23.120327  celldm(2)=   0.707106  celldm(3)=   1.053046
     celldm(4)=   0.000000  celldm(5)=   0.000000  celldm(6)=   0.000000

     crystal axes: (cart. coord. in units of alat)
               a(1) = (   1.000000   0.000000   0.000000 )
               a(2) = (   0.000000   0.707106   0.000000 )
               a(3) = (   0.000000   0.000000   1.053046 )

     reciprocal axes: (cart. coord. in units 2 pi/alat)
               b(1) = (  1.000000  0.000000  0.000000 )
               b(2) = (  0.000000  1.414214  0.000000 )
               b(3) = (  0.000000  0.000000  0.949626 )

     PseudoPot. # 1 for Au read from file:
     /expanse/lustre/projects/csd622/tpascal/nano110/qe/pseudo/au_pbe_v1.uspp.F.UPF
     MD5 check sum: 9d7f43293ad2c663164586bc4b293ffc
     Pseudo is Ultrasoft + core correction, Zval = 11.0
     Generated by new atomic code, or converted to UPF format
     Using radial grid of  985 points,  7 beta functions with:
                l(1) =   0
                l(2) =   0
                l(3) =   1
                l(4) =   1
                l(5) =   2
                l(6) =   2
                l(7) =   3
     Q(r) pseudized with  6 coefficients,  rinner =    1.900   1.900   1.900
                                                       1.900   1.900   1.900
                                                       1.900

     atomic species   valence    mass     pseudopotential
        Au            11.00   196.96655     Au( 1.00)

      4 Sym. Ops. (no inversion) found

                                    s                        frac. trans.

      isym =  1     identity

 cryst.   s( 1) = (     1          0          0      )
                  (     0          1          0      )
                  (     0          0          1      )

 cart.    s( 1) = (  1.0000000  0.0000000  0.0000000 )
                  (  0.0000000  1.0000000  0.0000000 )
                  (  0.0000000  0.0000000  1.0000000 )

      isym =  2     180 deg rotation - cart. axis [0,0,1]

[...]

      isym =  3     inv. 180 deg rotation - cart. axis [0,1,0]

[...]

      isym =  4     inv. 180 deg rotation - cart. axis [1,0,0]

 cryst.   s( 4) = (    -1          0          0      )
                  (     0          1          0      )
                  (     0          0          1      )

 cart.    s( 4) = ( -1.0000000  0.0000000  0.0000000 )
                  (  0.0000000  1.0000000  0.0000000 )
                  (  0.0000000  0.0000000  1.0000000 )

     point group C_2v (mm2)
     there are  4 classes
     the character table:

       E     C2    s_v   s_v'
A_1    1.00  1.00  1.00  1.00
A_2    1.00  1.00 -1.00 -1.00
B_1    1.00 -1.00  1.00 -1.00
B_2    1.00 -1.00 -1.00  1.00

     the symmetry operations in each class and the name of the first element:

     E        1
          identity
     C2       2
          180 deg rotation - cart. axis [0,0,1]
     s_v      4
          inv. 180 deg rotation - cart. axis [1,0,0]
     s_v'     3
          inv. 180 deg rotation - cart. axis [0,1,0]

   Cartesian axes

     site n.     atom                  positions (alat units)
         1           Au  tau(   1) = (   0.1666667   0.0000000   0.0000000  )
         2           Au  tau(   2) = (   0.0000000   0.1178511   0.1178511  )
         3           Au  tau(   3) = (   0.1666667   0.2357022   0.0000000  )
         4           Au  tau(   4) = (   0.0000000   0.3535534   0.1178511  )
         5           Au  tau(   5) = (   0.1666667   0.4714045   0.0000000  )
         6           Au  tau(   6) = (   0.0000000   0.5892556   0.1178511  )
         7           Au  tau(   7) = (   0.5000000   0.0000000   0.0000000  )
         8           Au  tau(   8) = (   0.3333333   0.1178511   0.1178511  )
         9           Au  tau(   9) = (   0.5000000   0.2357022   0.0000000  )
        10           Au  tau(  10) = (   0.3333333   0.3535534   0.1178511  )
        11           Au  tau(  11) = (   0.5000000   0.4714045   0.0000000  )
        12           Au  tau(  12) = (   0.3333333   0.5892556   0.1178511  )
        13           Au  tau(  13) = (   0.8333333   0.0000000   0.0000000  )
        14           Au  tau(  14) = (   0.6666667   0.1178511   0.1178511  )
        15           Au  tau(  15) = (   0.8333333   0.2357022   0.0000000  )
        16           Au  tau(  16) = (   0.6666667   0.3535534   0.1178511  )
        17           Au  tau(  17) = (   0.8333333   0.4714045   0.0000000  )
        18           Au  tau(  18) = (   0.6666667   0.5892556   0.1178511  )

   Crystallographic axes

     site n.     atom                  positions (cryst. coord.)
         1           Au  tau(   1) = (  0.1666667  0.0000000  0.0000000  )
         2           Au  tau(   2) = (  0.0000000  0.1666667  0.1119145  )
         3           Au  tau(   3) = (  0.1666667  0.3333335  0.0000000  )
         4           Au  tau(   4) = (  0.0000000  0.5000002  0.1119145  )
         5           Au  tau(   5) = (  0.1666667  0.6666670  0.0000000  )
         6           Au  tau(   6) = (  0.0000000  0.8333337  0.1119145  )
         7           Au  tau(   7) = (  0.5000000  0.0000000  0.0000000  )
         8           Au  tau(   8) = (  0.3333333  0.1666667  0.1119145  )
         9           Au  tau(   9) = (  0.5000000  0.3333335  0.0000000  )
        10           Au  tau(  10) = (  0.3333333  0.5000002  0.1119145  )
        11           Au  tau(  11) = (  0.5000000  0.6666670  0.0000000  )
        12           Au  tau(  12) = (  0.3333333  0.8333337  0.1119145  )
        13           Au  tau(  13) = (  0.8333333  0.0000000  0.0000000  )
        14           Au  tau(  14) = (  0.6666667  0.1666667  0.1119145  )
        15           Au  tau(  15) = (  0.8333333  0.3333335  0.0000000  )
        16           Au  tau(  16) = (  0.6666667  0.5000002  0.1119145  )
        17           Au  tau(  17) = (  0.8333333  0.6666670  0.0000000  )
        18           Au  tau(  18) = (  0.6666667  0.8333337  0.1119145  )

     number of k points=     9  Gaussian smearing, width (Ry)=  0.0030
                       cart. coord. in units 2pi/alat
        k(    1) = (   0.0000000   0.0000000   0.0000000), wk =   0.1250000
        k(    2) = (   0.0000000   0.3535536   0.0000000), wk =   0.2500000
        k(    3) = (   0.0000000  -0.7071072   0.0000000), wk =   0.1250000
        k(    4) = (   0.2500000   0.0000000   0.0000000), wk =   0.2500000
        k(    5) = (   0.2500000   0.3535536   0.0000000), wk =   0.5000000
        k(    6) = (   0.2500000  -0.7071072   0.0000000), wk =   0.2500000
        k(    7) = (  -0.5000000   0.0000000   0.0000000), wk =   0.1250000
        k(    8) = (  -0.5000000   0.3535536   0.0000000), wk =   0.2500000
        k(    9) = (  -0.5000000  -0.7071072   0.0000000), wk =   0.1250000

                       cryst. coord.
        k(    1) = (   0.0000000   0.0000000   0.0000000), wk =   0.1250000
        k(    2) = (   0.0000000   0.2500000   0.0000000), wk =   0.2500000
        k(    3) = (   0.0000000  -0.5000000   0.0000000), wk =   0.1250000
        k(    4) = (   0.2500000   0.0000000   0.0000000), wk =   0.2500000
        k(    5) = (   0.2500000   0.2500000   0.0000000), wk =   0.5000000
        k(    6) = (   0.2500000  -0.5000000   0.0000000), wk =   0.2500000
        k(    7) = (  -0.5000000   0.0000000   0.0000000), wk =   0.1250000
        k(    8) = (  -0.5000000   0.2500000   0.0000000), wk =   0.2500000
        k(    9) = (  -0.5000000  -0.5000000   0.0000000), wk =   0.1250000

     Check: negative core charge=   -0.000004

     Initial potential from superposition of free atoms

     starting charge  197.99780, renormalised to  198.00000

     negative rho (up, down):  2.553E-05 0.000E+00
     Starting wfcs are  162 randomized atomic wfcs

     Self-consistent Calculation

     iteration #  1     ecut=    30.00 Ry     beta= 0.30
     Davidson diagonalization with overlap
     ethr =  1.00E-02,  avg # of iterations =  2.0

     Threshold (ethr) on eigenvalues was too large:
     Diagonalizing with lowered threshold

     Davidson diagonalization with overlap
     ethr =  3.26E-04,  avg # of iterations =  2.2

     negative rho (up, down):  2.098E-05 0.000E+00

     total energy              =   -2068.80698472 Ry
     estimated scf accuracy    <       0.75569752 Ry

[...]

     iteration #  5     ecut=    30.00 Ry     beta= 0.30
     Davidson diagonalization with overlap
     c_bands:  1 eigenvalues not converged
     ethr =  1.92E-06,  avg # of iterations =  6.4

[...]

     End of self-consistent calculation

          k = 0.0000 0.0000 0.0000 ( 25547 PWs)   bands (ev):

    -6.8508  -6.2233  -6.2233  -5.7784  -5.7784  -5.7321  -5.1318  -5.1318
    -4.8544  -4.8544  -4.8486  -4.8486  -4.8486  -4.8486  -4.7166  -4.7166
    -4.7050  -4.7050  -4.7049  -4.7049  -4.6954  -4.6954  -4.5597  -4.5597
    -4.5597  -4.5597  -4.4321  -4.4126  -4.4126  -4.4126  -4.4126  -4.2991
    -4.2991  -4.1877  -3.9309  -3.8371  -3.8371  -3.6773  -3.6773  -3.6773
    -3.6772  -3.5955  -3.5955  -3.5344  -3.5344  -3.3836  -3.3836  -3.3636
    -3.3026  -3.3026  -3.1546  -3.1546  -3.1545  -3.1545  -3.1500  -3.1500
    -3.1282  -3.1282  -3.1063  -3.1063  -3.1015  -3.1015  -3.1014  -3.1014
    -2.8615  -2.8007  -2.8007  -2.8007  -2.8007  -2.7717  -2.6279  -2.5745
    -2.5745  -2.4564  -2.4564  -2.4564  -2.4564  -2.3960  -2.3960  -2.3723
    -2.3723  -2.3723  -2.3723  -2.3276  -2.3276  -2.3021  -2.1196  -2.1196
    -2.0902  -2.0902  -2.0635  -2.0635  -1.8465  -1.8465  -1.8442  -1.3541
    -1.3541  -1.3541  -1.3541  -0.8676  -0.5363  -0.5363   1.0047   1.0047
     1.2769   1.2769   1.2769   1.2769   1.4490   1.4490   2.9791   3.1767
     3.1767   4.2244   4.2244   4.2244   4.2244   4.8587   4.8592

     occupation numbers
     1.0000   1.0000   1.0000   1.0000   1.0000   1.0000   1.0000   1.0000
[...]
    -3.6065  -3.6064  -3.3988  -3.3987  -3.3987  -3.3986  -3.2746  -3.2746
    -3.2745  -3.2745  -3.2427  -3.2427  -3.2425  -3.2425  -3.1422  -3.1422
    -3.0992  -3.0992  -3.0991  -3.0989  -3.0477  -3.0477  -3.0477  -3.0476
    -2.6728  -2.6728  -2.6728  -2.6728  -2.5416  -2.5416  -2.5415  -2.5415
    -2.1070  -2.1069  -2.1069  -2.1068  -1.8694  -1.8694  -1.8694  -1.8694
    -1.7086  -1.7085  -1.6853  -1.6853  -1.6851  -1.6851  -0.9947  -0.9947
    -0.9947  -0.9947   0.8530   0.8531   0.8532   0.8534   0.8821   0.8821
     0.8822   0.8822   1.8572   1.8572   3.4714   3.4714   3.4715   3.4716
     3.5680   3.5681   3.5682   3.5683   3.9327   3.9327   4.2280

     occupation numbers
     1.0000   1.0000   1.0000   1.0000   1.0000   1.0000   1.0000   1.0000
     1.0000   1.0000   1.0000   1.0000   1.0000   1.0000   1.0000   1.0000
     1.0000   1.0000   1.0000   1.0000   1.0000   1.0000   1.0000   1.0000
     1.0000   1.0000   1.0000   1.0000   1.0000   1.0000   1.0000   1.0000
     1.0000   1.0000   1.0000   1.0000   1.0000   1.0000   1.0000   1.0000
     1.0000   1.0000   1.0000   1.0000   1.0000   1.0000   1.0000   1.0000
     1.0000   1.0000   1.0000   1.0000   1.0000   1.0000   1.0000   1.0000
     1.0000   1.0000   1.0000   1.0000   1.0000   1.0000   1.0000   1.0000
     1.0000   1.0000   1.0000   1.0000   1.0000   1.0000   1.0000   1.0000
     1.0000   1.0000   1.0000   1.0000   1.0000   1.0000   1.0000   1.0000
     1.0000   1.0000   1.0000   1.0000   1.0000   1.0000   1.0000   1.0000
     1.0000   1.0000   1.0000   1.0000   1.0000   1.0000   1.0000   1.0000
     1.0000   1.0000   0.0000   0.0000   0.0000   0.0000   0.0000   0.0000
     0.0000   0.0000   0.0000   0.0000   0.0000   0.0000   0.0000   0.0000
     0.0000   0.0000   0.0000   0.0000   0.0000   0.0000   0.0000

     the Fermi energy is    -0.2254 ev

!    total energy              =   -2069.02479029 Ry
     estimated scf accuracy    <          5.8E-10 Ry
     smearing contrib. (-TS)   =      -0.00011132 Ry
     internal energy E=F+TS    =   -2069.02467897 Ry

     The total energy is F=E-TS. E is the sum of the following terms:
     one-electron contribution =   -3468.83665004 Ry
     hartree contribution      =    1871.95087996 Ry
     xc contribution           =   -1119.90230697 Ry
     ewald contribution        =     647.76339807 Ry

     convergence has been achieved in   6 iterations

     negative rho (up, down):  1.281E-04 0.000E+00

     Forces acting on atoms (cartesian axes, Ry/au):

     atom    1 type  1   force =    -0.00002466    0.00000000    0.00005570
     atom    2 type  1   force =     0.00000000   -0.00000176   -0.00005733
     atom    3 type  1   force =    -0.00004268   -0.00000830    0.00004519
     atom    4 type  1   force =     0.00000000    0.00000000   -0.00004993
     atom    5 type  1   force =    -0.00004268    0.00000830    0.00004519
     atom    6 type  1   force =     0.00000000    0.00000176   -0.00005733
     atom    7 type  1   force =     0.00000000    0.00000000    0.00003232
     atom    8 type  1   force =    -0.00002061   -0.00002460   -0.00003665
     atom    9 type  1   force =     0.00000000   -0.00003296    0.00001538
     atom   10 type  1   force =    -0.00003883    0.00000000   -0.00002203
     atom   11 type  1   force =     0.00000000    0.00003296    0.00001538
     atom   12 type  1   force =    -0.00002061    0.00002460   -0.00003665
     atom   13 type  1   force =     0.00002466    0.00000000    0.00005570
     atom   14 type  1   force =     0.00002061   -0.00002460   -0.00003665
     atom   15 type  1   force =     0.00004268   -0.00000830    0.00004519
     atom   16 type  1   force =     0.00003883    0.00000000   -0.00002203
     atom   17 type  1   force =     0.00004268    0.00000830    0.00004519
     atom   18 type  1   force =     0.00002061    0.00002460   -0.00003665
     The non-local contrib.  to forces
     atom    1 type  1   force =    -0.00000526    0.00000000   -0.03942566
     atom    2 type  1   force =     0.00000000    0.00000248    0.03942438
     atom    3 type  1   force =    -0.00000456    0.00000190   -0.03942513
     atom    4 type  1   force =     0.00000000    0.00000000    0.03942689
     atom    5 type  1   force =    -0.00000456   -0.00000190   -0.03942513
     atom    6 type  1   force =     0.00000000   -0.00000248    0.03942438
     atom    7 type  1   force =     0.00000000    0.00000000   -0.03942122
     atom    8 type  1   force =    -0.00000875   -0.00000197    0.03941928
     atom    9 type  1   force =    -0.00000000   -0.00000440   -0.03941362
     atom   10 type  1   force =    -0.00000602    0.00000000    0.03941358
     atom   11 type  1   force =     0.00000000    0.00000440   -0.03941362
     atom   12 type  1   force =    -0.00000875    0.00000197    0.03941928
     atom   13 type  1   force =     0.00000526    0.00000000   -0.03942566
     atom   14 type  1   force =     0.00000875   -0.00000197    0.03941928
     atom   15 type  1   force =     0.00000456    0.00000190   -0.03942513
     atom   16 type  1   force =     0.00000602    0.00000000    0.03941358
     atom   17 type  1   force =     0.00000456   -0.00000190   -0.03942513
     atom   18 type  1   force =     0.00000875    0.00000197    0.03941928
     The ionic contribution  to forces
     atom    1 type  1   force =    -0.00108462    0.00003638  -16.09599312
     atom    2 type  1   force =    -0.00000000   -0.00030004   16.09597695
     atom    3 type  1   force =    -0.00197505   -0.00076975  -16.09646804
     atom    4 type  1   force =    -0.00000000   -0.00000751   16.09653678
     atom    5 type  1   force =    -0.00197505    0.00074079  -16.09646804
     atom    6 type  1   force =    -0.00000000    0.00030012   16.09599288
     atom    7 type  1   force =     0.00000000    0.00003639  -16.09135591
     atom    8 type  1   force =    -0.00148430   -0.00184533   16.09427463
     atom    9 type  1   force =     0.00000000   -0.00241966  -16.09452436
     atom   10 type  1   force =    -0.00232024   -0.00000751   16.09631303
     atom   11 type  1   force =     0.00000000    0.00239070  -16.09452437
     atom   12 type  1   force =    -0.00148430    0.00184541   16.09429056
     atom   13 type  1   force =     0.00108462    0.00003638  -16.09599312
     atom   14 type  1   force =     0.00148430   -0.00184533   16.09427463
     atom   15 type  1   force =     0.00197505   -0.00076975  -16.09646804
     atom   16 type  1   force =     0.00232024   -0.00000751   16.09631303
     atom   17 type  1   force =     0.00197505    0.00074079  -16.09646804
     atom   18 type  1   force =     0.00148430    0.00184541   16.09429056
     The local contribution  to forces
     atom    1 type  1   force =     0.00107800   -0.00000000   16.11117517
     atom    2 type  1   force =    -0.00000000    0.00025971  -16.11116252
     atom    3 type  1   force =     0.00194629    0.00070775   16.11163886
     atom    4 type  1   force =    -0.00000000   -0.00004369  -16.11171069
     atom    5 type  1   force =     0.00194629   -0.00079513   16.11163886
     atom    6 type  1   force =    -0.00000000   -0.00034709  -16.11116252
     atom    7 type  1   force =     0.00000000   -0.00000000   16.10651798
     atom    8 type  1   force =     0.00147483    0.00178303  -16.10943162
     atom    9 type  1   force =     0.00000000    0.00233566   16.10965688
     atom   10 type  1   force =     0.00228679   -0.00004369  -16.11143854
     atom   11 type  1   force =     0.00000000   -0.00242304   16.10965688
     atom   12 type  1   force =     0.00147483   -0.00187041  -16.10943162
     atom   13 type  1   force =    -0.00107800   -0.00000000   16.11117517
     atom   14 type  1   force =    -0.00147483    0.00178303  -16.10943162
     atom   15 type  1   force =    -0.00194629    0.00070775   16.11163886
     atom   16 type  1   force =    -0.00228679   -0.00004369  -16.11143854
     atom   17 type  1   force =    -0.00194629   -0.00079513   16.11163886
     atom   18 type  1   force =    -0.00147483   -0.00187041  -16.10943162
     The core correction contribution to forces
     atom    1 type  1   force =    -0.00000403    0.00000000    0.02428271
     atom    2 type  1   force =     0.00000000   -0.00001526   -0.02427734
     atom    3 type  1   force =     0.00000034   -0.00001381    0.02428610
     atom    4 type  1   force =     0.00000000   -0.00001512   -0.02427915
     atom    5 type  1   force =     0.00000034   -0.00001643    0.02428610
     atom    6 type  1   force =     0.00000000   -0.00001497   -0.02427734
     atom    7 type  1   force =    -0.00000000   -0.00000000    0.02428090
     atom    8 type  1   force =     0.00000273   -0.00001016   -0.02428828
     atom    9 type  1   force =    -0.00000000   -0.00000836    0.02429005
     atom   10 type  1   force =     0.00000734   -0.00001512   -0.02429530
     atom   11 type  1   force =    -0.00000000   -0.00002187    0.02429005
     atom   12 type  1   force =     0.00000272   -0.00002007   -0.02428828
     atom   13 type  1   force =     0.00000403    0.00000000    0.02428271
     atom   14 type  1   force =    -0.00000273   -0.00001016   -0.02428828
     atom   15 type  1   force =    -0.00000034   -0.00001381    0.02428610
     atom   16 type  1   force =    -0.00000734   -0.00001512   -0.02429530
     atom   17 type  1   force =    -0.00000034   -0.00001643    0.02428610
     atom   18 type  1   force =    -0.00000272   -0.00002007   -0.02428828
     The Hubbard contrib.    to forces
     atom    1 type  1   force =     0.00000000    0.00000000    0.00000000
     atom    2 type  1   force =     0.00000000    0.00000000    0.00000000
     atom    3 type  1   force =     0.00000000    0.00000000    0.00000000
     atom    4 type  1   force =     0.00000000    0.00000000    0.00000000
     atom    5 type  1   force =     0.00000000    0.00000000    0.00000000
     atom    6 type  1   force =     0.00000000    0.00000000    0.00000000
     atom    7 type  1   force =     0.00000000    0.00000000    0.00000000
     atom    8 type  1   force =     0.00000000    0.00000000    0.00000000
     atom    9 type  1   force =     0.00000000    0.00000000    0.00000000
     atom   10 type  1   force =     0.00000000    0.00000000    0.00000000
     atom   11 type  1   force =     0.00000000    0.00000000    0.00000000
     atom   12 type  1   force =     0.00000000    0.00000000    0.00000000
     atom   13 type  1   force =     0.00000000    0.00000000    0.00000000
     atom   14 type  1   force =     0.00000000    0.00000000    0.00000000
     atom   15 type  1   force =     0.00000000    0.00000000    0.00000000
     atom   16 type  1   force =     0.00000000    0.00000000    0.00000000
     atom   17 type  1   force =     0.00000000    0.00000000    0.00000000
     atom   18 type  1   force =     0.00000000    0.00000000    0.00000000
     The SCF correction term to forces
     atom    1 type  1   force =    -0.00000875    0.00000000    0.00001648
     atom    2 type  1   force =     0.00000000   -0.00000742   -0.00002688
     atom    3 type  1   force =    -0.00000970   -0.00000768    0.00001329
     atom    4 type  1   force =     0.00000000    0.00000000   -0.00002387
     atom    5 type  1   force =    -0.00000970    0.00000768    0.00001329
     atom    6 type  1   force =    -0.00000000    0.00000742   -0.00002688
     atom    7 type  1   force =     0.00000000    0.00000000    0.00001045
     atom    8 type  1   force =    -0.00000512   -0.00000894   -0.00001875
     atom    9 type  1   force =     0.00000000   -0.00000948    0.00000633
     atom   10 type  1   force =    -0.00000671    0.00000000   -0.00001492
     atom   11 type  1   force =     0.00000000    0.00000948    0.00000633
     atom   12 type  1   force =    -0.00000512    0.00000894   -0.00001875
     atom   13 type  1   force =     0.00000875    0.00000000    0.00001648
     atom   14 type  1   force =     0.00000512   -0.00000894   -0.00001875
     atom   15 type  1   force =     0.00000970   -0.00000768    0.00001329
     atom   16 type  1   force =     0.00000671    0.00000000   -0.00001492
     atom   17 type  1   force =     0.00000970    0.00000768    0.00001329
     atom   18 type  1   force =     0.00000512    0.00000894   -0.00001875

     Total force =     0.000222     Total SCF correction =     0.000083
     SCF correction compared to forces is large: reduce conv_thr to get better values

     Computing stress (Cartesian axis) and pressure

     negative rho (up, down):  1.281E-04 0.000E+00
          total   stress  (Ry/bohr**3)                   (kbar)     P=       18.96
   0.00030406   0.00000000   0.00000000           44.73        0.00        0.00
   0.00000000   0.00008447   0.00000000            0.00       12.43        0.00
   0.00000000   0.00000000  -0.00000177            0.00        0.00       -0.26

     kinetic stress (kbar)   4809.97      0.00      0.00
                                0.00   4789.86      0.00
                                0.00      0.00   4916.29

     local   stress (kbar) -51447.10      0.00     -0.00
                                0.00 -52380.92      0.00
                               -0.00      0.00  64027.51

     nonloc. stress (kbar)  -3050.33      0.00      0.00
                                0.00  -3043.13      0.00
                                0.00      0.00  -3058.67

     hartree stress (kbar)  27937.88     -0.00     -0.00
                               -0.00  28310.44     -0.00
                               -0.00     -0.00 -26325.13

     exc-cor stress (kbar)  12480.61      0.00     -0.00
                                0.00  12481.49     -0.00
                               -0.00     -0.00  12469.24

     corecor stress (kbar) -14402.74      0.00     -0.00
                                0.00 -14400.30     -0.00
                               -0.00     -0.00 -14412.59

     ewald   stress (kbar)  23716.45      0.00      0.00
                                0.00  24254.98     -0.00
                                0.00     -0.00 -37616.92

     hubbard stress (kbar)      0.00      0.00      0.00
                                0.00      0.00      0.00
                                0.00      0.00      0.00

     DFT-D   stress (kbar)      0.00      0.00      0.00
                                0.00      0.00      0.00
                                0.00      0.00      0.00

     XDM     stress (kbar)      0.00      0.00      0.00
                                0.00      0.00      0.00
                                0.00      0.00      0.00

     dft-nl  stress (kbar)      0.00      0.00      0.00
                                0.00      0.00      0.00
                                0.00      0.00      0.00

     TS-vdW  stress (kbar)      0.00      0.00      0.00
                                0.00      0.00      0.00
                                0.00      0.00      0.00

     Energy error            =      3.1E-06
     Gradient error          =      5.7E-05

     bfgs converged in   9 scf cycles and   8 bfgs steps
     (criteria: energy <  1.0E-04 Ry, force <  1.0E-03 Ry/Bohr)

     End of BFGS Geometry Optimization

     Final energy   =   -2069.0247902930 Ry

     File ./surface.bfgs deleted, as requested
Begin final coordinates

ATOMIC_POSITIONS (angstrom)
Au            2.0391860223        0.0000000000        0.2624738081
Au            0.0000000000        1.4418746791        1.1793949084
Au            2.0391697453        2.8837815031        0.2624751554
Au            0.0000000000        4.3256370000        1.1794036209
Au            2.0391697453        5.7674924969        0.2624751554
Au            0.0000000000        7.2093993209        1.1793949084
Au            6.1173750000        0.0000000000        0.2626976216
Au            4.0782876347        1.4419570694        1.1793084707
Au            6.1173750000        2.8838614444        0.2626123378
Au            4.0782768012        4.3256370000        1.1793565724
Au            6.1173750000        5.7674125556        0.2626123378
Au            4.0782876347        7.2093169306        1.1793084707
Au           10.1955639777        0.0000000000        0.2624738081
Au            8.1564623653        1.4419570694        1.1793084707
Au           10.1955802547        2.8837815031        0.2624751554
Au            8.1564731988        4.3256370000        1.1793565724
Au           10.1955802547        5.7674924969        0.2624751554
Au            8.1564623653        7.2093169306        1.1793084707
End final coordinates

     Writing output data file ./surface.save/

     General routines

     Parallel routines

   This run was terminated on:  17:59:49   9Dec2021

   JOB DONE.