     Program PWSCF v.6.7MaX starts on 10Dec2021 at  2:41: 1

     R & G space division:  proc/nbgrp/npool/nimage =      64
     Reading input from pt_surface.100.qe.7655837.2_2_3.in

     Current dimensions of program PWSCF are:
     Max number of different atomic species (ntypx) = 10
     Max number of k-points (npk) =  40000
     Max angular momentum in pseudopotentials (lmaxx) =  3

     Found symmetry operation: I + (  0.0000 -0.5000  0.0000)
     This is a supercell, fractional translations are disabled

     bravais-lattice index     =            8
     lattice parameter (alat)  =      15.0300  a.u.
     unit-cell volume          =    9361.8636 (a.u.)^3
     number of atoms/cell      =           48
     number of atomic types    =            1
     number of electrons       =       768.00
     number of Kohn-Sham states=          461
     kinetic-energy cutoff     =      30.0000  Ry
     charge density cutoff     =     300.0000  Ry
     scf convergence threshold =      1.0E-06
     mixing beta               =       0.3000
     number of iterations used =            8  plain     mixing
     energy convergence thresh.=      1.0E-04
     force convergence thresh. =      1.0E-03
     Exchange-correlation=  SLA  PW   PBX  PBC
                           (   1   4   3   4   0   0   0)
     nstep                     =           50

     celldm(1)=  15.030012  celldm(2)=   1.000000  celldm(3)=   2.757302
     celldm(4)=   0.000000  celldm(5)=   0.000000  celldm(6)=   0.000000

     crystal axes: (cart. coord. in units of alat)
               a(1) = (   1.000000   0.000000   0.000000 )
               a(2) = (   0.000000   1.000000   0.000000 )
               a(3) = (   0.000000   0.000000   2.757302 )

     reciprocal axes: (cart. coord. in units 2 pi/alat)
               b(1) = (  1.000000  0.000000  0.000000 )
               b(2) = (  0.000000  1.000000  0.000000 )
               b(3) = (  0.000000  0.000000  0.362673 )

     PseudoPot. # 1 for Pt read from file:
     /expanse/lustre/projects/csd622/tpascal/nano110/qe/pseudo/pt_pbe_v1.4.uspp.F.UPF
     MD5 check sum: f09d6de1a584b5a045c4fc126da2d0c4
     Pseudo is Ultrasoft + core correction, Zval = 16.0
     Generated by new atomic code, or converted to UPF format
     Using radial grid of  985 points,  6 beta functions with:
                l(1) =   0
                l(2) =   0
                l(3) =   1
                l(4) =   1
                l(5) =   2
                l(6) =   2
     Q(r) pseudized with  8 coefficients,  rinner =    1.300   1.300   1.300
                                                       1.300   1.300

     atomic species   valence    mass     pseudopotential
        Pt            16.00   195.08400     Pt( 1.00)

      8 Sym. Ops. (no inversion) found

                                    s                        frac. trans.

      isym =  1     identity

 cryst.   s( 1) = (     1          0          0      )
                  (     0          1          0      )
                  (     0          0          1      )

 cart.    s( 1) = (  1.0000000  0.0000000  0.0000000 )
                  (  0.0000000  1.0000000  0.0000000 )
                  (  0.0000000  0.0000000  1.0000000 )

      isym =  2     180 deg rotation - cart. axis [0,0,1]

[...]

      isym =  4      90 deg rotation - cart. axis [0,0,1]

[...]

      isym =  5     inv. 180 deg rotation - cart. axis [0,1,0]

[...]

      isym =  8     inv. 180 deg rotation - cart. axis [1,-1,0]

 cryst.   s( 8) = (     0          1          0      )
                  (     1          0          0      )
                  (     0          0          1      )

 cart.    s( 8) = (  0.0000000  1.0000000  0.0000000 )
                  (  1.0000000  0.0000000  0.0000000 )
                  (  0.0000000  0.0000000  1.0000000 )

     point group C_4v (4mm)
     there are  5 classes
     the character table:

       E     2C4   C2    2s_v  2s_d
A_1    1.00  1.00  1.00  1.00  1.00
A_2    1.00  1.00  1.00 -1.00 -1.00
B_1    1.00 -1.00  1.00  1.00 -1.00
B_2    1.00 -1.00  1.00 -1.00  1.00
E      2.00  0.00 -2.00  0.00  0.00

     the symmetry operations in each class and the name of the first element:

     E        1
          identity
     2C4      3    4
           90 deg rotation - cart. axis [0,0,-1]
     C2       2
          180 deg rotation - cart. axis [0,0,1]
     2s_v     5    6
          inv. 180 deg rotation - cart. axis [0,1,0]
     2s_d     7    8
          inv. 180 deg rotation - cart. axis [1,1,0]

   Cartesian axes

     site n.     atom                  positions (alat units)
         1           Pt  tau(   1) = (   0.0000000   0.0000000   0.0000000  )
         2           Pt  tau(   2) = (   0.0000000   0.0000000   0.5000000  )
         3           Pt  tau(   3) = (   0.0000000   0.0000000   1.0000000  )
         4           Pt  tau(   4) = (   0.0000000   0.5000000   0.0000000  )
         5           Pt  tau(   5) = (   0.0000000   0.5000000   0.5000000  )
         6           Pt  tau(   6) = (   0.0000000   0.5000000   1.0000000  )
         7           Pt  tau(   7) = (   0.5000000   0.0000000   0.0000000  )
         8           Pt  tau(   8) = (   0.5000000   0.0000000   0.5000000  )
         9           Pt  tau(   9) = (   0.5000000   0.0000000   1.0000000  )
        10           Pt  tau(  10) = (   0.5000000   0.5000000   0.0000000  )
        11           Pt  tau(  11) = (   0.5000000   0.5000000   0.5000000  )
        12           Pt  tau(  12) = (   0.5000000   0.5000000   1.0000000  )
        13           Pt  tau(  13) = (   0.0000000   0.2500000   0.2500000  )
        14           Pt  tau(  14) = (   0.0000000   0.2500000   0.7500000  )
        15           Pt  tau(  15) = (   0.0000000   0.2500000   1.2500000  )
        16           Pt  tau(  16) = (   0.0000000   0.7500000   0.2500000  )
        17           Pt  tau(  17) = (   0.0000000   0.7500000   0.7500000  )
        18           Pt  tau(  18) = (   0.0000000   0.7500000   1.2500000  )
        19           Pt  tau(  19) = (   0.5000000   0.2500000   0.2500000  )
        20           Pt  tau(  20) = (   0.5000000   0.2500000   0.7500000  )
        21           Pt  tau(  21) = (   0.5000000   0.2500000   1.2500000  )
        22           Pt  tau(  22) = (   0.5000000   0.7500000   0.2500000  )
        23           Pt  tau(  23) = (   0.5000000   0.7500000   0.7500000  )
        24           Pt  tau(  24) = (   0.5000000   0.7500000   1.2500000  )
        25           Pt  tau(  25) = (   0.2500000   0.0000000   0.2500000  )
        26           Pt  tau(  26) = (   0.2500000   0.0000000   0.7500000  )
        27           Pt  tau(  27) = (   0.2500000   0.0000000   1.2500000  )
        28           Pt  tau(  28) = (   0.2500000   0.5000000   0.2500000  )
        29           Pt  tau(  29) = (   0.2500000   0.5000000   0.7500000  )
        30           Pt  tau(  30) = (   0.2500000   0.5000000   1.2500000  )
        31           Pt  tau(  31) = (   0.7500000   0.0000000   0.2500000  )
        32           Pt  tau(  32) = (   0.7500000   0.0000000   0.7500000  )
        33           Pt  tau(  33) = (   0.7500000   0.0000000   1.2500000  )
        34           Pt  tau(  34) = (   0.7500000   0.5000000   0.2500000  )
        35           Pt  tau(  35) = (   0.7500000   0.5000000   0.7500000  )
        36           Pt  tau(  36) = (   0.7500000   0.5000000   1.2500000  )
        37           Pt  tau(  37) = (   0.2500000   0.2500000   0.0000000  )
        38           Pt  tau(  38) = (   0.2500000   0.2500000   0.5000000  )
        39           Pt  tau(  39) = (   0.2500000   0.2500000   1.0000000  )
        40           Pt  tau(  40) = (   0.2500000   0.7500000   0.0000000  )
        41           Pt  tau(  41) = (   0.2500000   0.7500000   0.5000000  )
        42           Pt  tau(  42) = (   0.2500000   0.7500000   1.0000000  )
        43           Pt  tau(  43) = (   0.7500000   0.2500000   0.0000000  )
        44           Pt  tau(  44) = (   0.7500000   0.2500000   0.5000000  )
        45           Pt  tau(  45) = (   0.7500000   0.2500000   1.0000000  )
        46           Pt  tau(  46) = (   0.7500000   0.7500000   0.0000000  )
        47           Pt  tau(  47) = (   0.7500000   0.7500000   0.5000000  )
        48           Pt  tau(  48) = (   0.7500000   0.7500000   1.0000000  )

   Crystallographic axes

     site n.     atom                  positions (cryst. coord.)
         1           Pt  tau(   1) = (  0.0000000  0.0000000  0.0000000  )
         2           Pt  tau(   2) = (  0.0000000  0.0000000  0.1813367  )
         3           Pt  tau(   3) = (  0.0000000  0.0000000  0.3626734  )
         4           Pt  tau(   4) = (  0.0000000  0.5000000  0.0000000  )
         5           Pt  tau(   5) = (  0.0000000  0.5000000  0.1813367  )
         6           Pt  tau(   6) = (  0.0000000  0.5000000  0.3626734  )
         7           Pt  tau(   7) = (  0.5000000  0.0000000  0.0000000  )
         8           Pt  tau(   8) = (  0.5000000  0.0000000  0.1813367  )
         9           Pt  tau(   9) = (  0.5000000  0.0000000  0.3626734  )
        10           Pt  tau(  10) = (  0.5000000  0.5000000  0.0000000  )
        11           Pt  tau(  11) = (  0.5000000  0.5000000  0.1813367  )
        12           Pt  tau(  12) = (  0.5000000  0.5000000  0.3626734  )
        13           Pt  tau(  13) = (  0.0000000  0.2500000  0.0906683  )
        14           Pt  tau(  14) = (  0.0000000  0.2500000  0.2720050  )
        15           Pt  tau(  15) = (  0.0000000  0.2500000  0.4533417  )
        16           Pt  tau(  16) = (  0.0000000  0.7500000  0.0906683  )
        17           Pt  tau(  17) = (  0.0000000  0.7500000  0.2720050  )
        18           Pt  tau(  18) = (  0.0000000  0.7500000  0.4533417  )
        19           Pt  tau(  19) = (  0.5000000  0.2500000  0.0906683  )
        20           Pt  tau(  20) = (  0.5000000  0.2500000  0.2720050  )
        21           Pt  tau(  21) = (  0.5000000  0.2500000  0.4533417  )
        22           Pt  tau(  22) = (  0.5000000  0.7500000  0.0906683  )
        23           Pt  tau(  23) = (  0.5000000  0.7500000  0.2720050  )
        24           Pt  tau(  24) = (  0.5000000  0.7500000  0.4533417  )
        25           Pt  tau(  25) = (  0.2500000  0.0000000  0.0906683  )
        26           Pt  tau(  26) = (  0.2500000  0.0000000  0.2720050  )
        27           Pt  tau(  27) = (  0.2500000  0.0000000  0.4533417  )
        28           Pt  tau(  28) = (  0.2500000  0.5000000  0.0906683  )
        29           Pt  tau(  29) = (  0.2500000  0.5000000  0.2720050  )
        30           Pt  tau(  30) = (  0.2500000  0.5000000  0.4533417  )
        31           Pt  tau(  31) = (  0.7500000  0.0000000  0.0906683  )
        32           Pt  tau(  32) = (  0.7500000  0.0000000  0.2720050  )
        33           Pt  tau(  33) = (  0.7500000  0.0000000  0.4533417  )
        34           Pt  tau(  34) = (  0.7500000  0.5000000  0.0906683  )
        35           Pt  tau(  35) = (  0.7500000  0.5000000  0.2720050  )
        36           Pt  tau(  36) = (  0.7500000  0.5000000  0.4533417  )
[...]
     atom   10 type  1   force =     0.00000000    0.00000000    0.02453531
     atom   11 type  1   force =    -0.00000000   -0.00000000   -0.00094471
     atom   12 type  1   force =     0.00000000    0.00000000    0.00368321
     atom   13 type  1   force =     0.00000000   -0.00000040   -0.00368239
     atom   14 type  1   force =     0.00000000    0.00000007    0.00094452
     atom   15 type  1   force =     0.00000000   -0.00000000   -0.02453755
     atom   16 type  1   force =     0.00000000    0.00000040   -0.00368239
     atom   17 type  1   force =     0.00000000   -0.00000007    0.00094452
     atom   18 type  1   force =     0.00000000    0.00000000   -0.02453755
     atom   19 type  1   force =     0.00000000   -0.00000045   -0.00368249
     atom   20 type  1   force =    -0.00000000   -0.00000002    0.00094501
     atom   21 type  1   force =    -0.00000000   -0.00000010   -0.02453698
     atom   22 type  1   force =     0.00000000    0.00000045   -0.00368249
     atom   23 type  1   force =    -0.00000000    0.00000002    0.00094501
     atom   24 type  1   force =    -0.00000000    0.00000010   -0.02453698
     atom   25 type  1   force =    -0.00000040    0.00000000   -0.00368239
     atom   26 type  1   force =     0.00000007    0.00000000    0.00094452
     atom   27 type  1   force =    -0.00000000    0.00000000   -0.02453755
     atom   28 type  1   force =    -0.00000045    0.00000000   -0.00368249
     atom   29 type  1   force =    -0.00000002   -0.00000000    0.00094501
     atom   30 type  1   force =    -0.00000010   -0.00000000   -0.02453698
     atom   31 type  1   force =     0.00000040    0.00000000   -0.00368239
     atom   32 type  1   force =    -0.00000007    0.00000000    0.00094452
     atom   33 type  1   force =     0.00000000    0.00000000   -0.02453755
     atom   34 type  1   force =     0.00000045   -0.00000000   -0.00368249
     atom   35 type  1   force =     0.00000002    0.00000000    0.00094501
     atom   36 type  1   force =     0.00000010   -0.00000000   -0.02453698
     atom   37 type  1   force =    -0.00000027   -0.00000027    0.02453772
     atom   38 type  1   force =    -0.00000017   -0.00000017   -0.00094511
     atom   39 type  1   force =     0.00000008    0.00000008    0.00368275
     atom   40 type  1   force =    -0.00000027    0.00000027    0.02453772
     atom   41 type  1   force =    -0.00000017    0.00000017   -0.00094511
     atom   42 type  1   force =     0.00000008   -0.00000008    0.00368275
     atom   43 type  1   force =     0.00000027   -0.00000027    0.02453772
     atom   44 type  1   force =     0.00000017   -0.00000017   -0.00094511
     atom   45 type  1   force =    -0.00000008    0.00000008    0.00368275
     atom   46 type  1   force =     0.00000027    0.00000027    0.02453772
     atom   47 type  1   force =     0.00000017    0.00000017   -0.00094511
     atom   48 type  1   force =    -0.00000008   -0.00000008    0.00368275
     The Hubbard contrib.    to forces
     atom    1 type  1   force =     0.00000000    0.00000000    0.00000000
     atom    2 type  1   force =     0.00000000    0.00000000    0.00000000
     atom    3 type  1   force =     0.00000000    0.00000000    0.00000000
     atom    4 type  1   force =     0.00000000    0.00000000    0.00000000
     atom    5 type  1   force =     0.00000000    0.00000000    0.00000000
     atom    6 type  1   force =     0.00000000    0.00000000    0.00000000
     atom    7 type  1   force =     0.00000000    0.00000000    0.00000000
     atom    8 type  1   force =     0.00000000    0.00000000    0.00000000
     atom    9 type  1   force =     0.00000000    0.00000000    0.00000000
     atom   10 type  1   force =     0.00000000    0.00000000    0.00000000
     atom   11 type  1   force =     0.00000000    0.00000000    0.00000000
     atom   12 type  1   force =     0.00000000    0.00000000    0.00000000
     atom   13 type  1   force =     0.00000000    0.00000000    0.00000000
     atom   14 type  1   force =     0.00000000    0.00000000    0.00000000
     atom   15 type  1   force =     0.00000000    0.00000000    0.00000000
     atom   16 type  1   force =     0.00000000    0.00000000    0.00000000
     atom   17 type  1   force =     0.00000000    0.00000000    0.00000000
     atom   18 type  1   force =     0.00000000    0.00000000    0.00000000
     atom   19 type  1   force =     0.00000000    0.00000000    0.00000000
     atom   20 type  1   force =     0.00000000    0.00000000    0.00000000
     atom   21 type  1   force =     0.00000000    0.00000000    0.00000000
     atom   22 type  1   force =     0.00000000    0.00000000    0.00000000
     atom   23 type  1   force =     0.00000000    0.00000000    0.00000000
     atom   24 type  1   force =     0.00000000    0.00000000    0.00000000
     atom   25 type  1   force =     0.00000000    0.00000000    0.00000000
     atom   26 type  1   force =     0.00000000    0.00000000    0.00000000
     atom   27 type  1   force =     0.00000000    0.00000000    0.00000000
     atom   28 type  1   force =     0.00000000    0.00000000    0.00000000
     atom   29 type  1   force =     0.00000000    0.00000000    0.00000000
     atom   30 type  1   force =     0.00000000    0.00000000    0.00000000
     atom   31 type  1   force =     0.00000000    0.00000000    0.00000000
     atom   32 type  1   force =     0.00000000    0.00000000    0.00000000
     atom   33 type  1   force =     0.00000000    0.00000000    0.00000000
     atom   34 type  1   force =     0.00000000    0.00000000    0.00000000
     atom   35 type  1   force =     0.00000000    0.00000000    0.00000000
     atom   36 type  1   force =     0.00000000    0.00000000    0.00000000
     atom   37 type  1   force =     0.00000000    0.00000000    0.00000000
     atom   38 type  1   force =     0.00000000    0.00000000    0.00000000
     atom   39 type  1   force =     0.00000000    0.00000000    0.00000000
     atom   40 type  1   force =     0.00000000    0.00000000    0.00000000
     atom   41 type  1   force =     0.00000000    0.00000000    0.00000000
     atom   42 type  1   force =     0.00000000    0.00000000    0.00000000
     atom   43 type  1   force =     0.00000000    0.00000000    0.00000000
     atom   44 type  1   force =     0.00000000    0.00000000    0.00000000
     atom   45 type  1   force =     0.00000000    0.00000000    0.00000000
     atom   46 type  1   force =     0.00000000    0.00000000    0.00000000
     atom   47 type  1   force =     0.00000000    0.00000000    0.00000000
     atom   48 type  1   force =     0.00000000    0.00000000    0.00000000
     The SCF correction term to forces
     atom    1 type  1   force =     0.00000000    0.00000000   -0.00006242
     atom    2 type  1   force =    -0.00000000   -0.00000000    0.00011284
     atom    3 type  1   force =    -0.00000000   -0.00000000   -0.00003954
     atom    4 type  1   force =    -0.00000000   -0.00000000   -0.00000927
     atom    5 type  1   force =     0.00000000   -0.00000000    0.00009441
     atom    6 type  1   force =     0.00000000    0.00000000   -0.00003704
     atom    7 type  1   force =     0.00000000    0.00000000   -0.00000927
     atom    8 type  1   force =     0.00000000   -0.00000000    0.00009441
     atom    9 type  1   force =    -0.00000000   -0.00000000   -0.00003704
     atom   10 type  1   force =     0.00000000   -0.00000000    0.00003679
     atom   11 type  1   force =    -0.00000000   -0.00000000    0.00007481
     atom   12 type  1   force =     0.00000000    0.00000000   -0.00003231
     atom   13 type  1   force =     0.00000000    0.00008859    0.00006626
     atom   14 type  1   force =    -0.00000000    0.00007249    0.00000678
     atom   15 type  1   force =     0.00000000    0.00006215   -0.00000244
     atom   16 type  1   force =     0.00000000   -0.00008859    0.00006626
     atom   17 type  1   force =    -0.00000000   -0.00007249    0.00000678
     atom   18 type  1   force =     0.00000000   -0.00006215   -0.00000244
     atom   19 type  1   force =    -0.00000000    0.00008512    0.00009444
     atom   20 type  1   force =    -0.00000000    0.00006813   -0.00001018
     atom   21 type  1   force =     0.00000000    0.00005826   -0.00002258
     atom   22 type  1   force =    -0.00000000   -0.00008512    0.00009444
     atom   23 type  1   force =    -0.00000000   -0.00006813   -0.00001018
     atom   24 type  1   force =     0.00000000   -0.00005826   -0.00002258
     atom   25 type  1   force =     0.00008859   -0.00000000    0.00006626
     atom   26 type  1   force =     0.00007249    0.00000000    0.00000678
     atom   27 type  1   force =     0.00006215    0.00000000   -0.00000244
     atom   28 type  1   force =     0.00008512   -0.00000000    0.00009444
     atom   29 type  1   force =     0.00006813    0.00000000   -0.00001018
     atom   30 type  1   force =     0.00005826   -0.00000000   -0.00002258
     atom   31 type  1   force =    -0.00008859   -0.00000000    0.00006626
     atom   32 type  1   force =    -0.00007249    0.00000000    0.00000678
     atom   33 type  1   force =    -0.00006215    0.00000000   -0.00000244
     atom   34 type  1   force =    -0.00008512    0.00000000    0.00009444
     atom   35 type  1   force =    -0.00006813    0.00000000   -0.00001018
     atom   36 type  1   force =    -0.00005826   -0.00000000   -0.00002258
     atom   37 type  1   force =     0.00005340    0.00005340   -0.00001049
     atom   38 type  1   force =     0.00008908    0.00008908    0.00009418
     atom   39 type  1   force =     0.00006642    0.00006642   -0.00003713
     atom   40 type  1   force =     0.00005340   -0.00005340   -0.00001049
     atom   41 type  1   force =     0.00008908   -0.00008908    0.00009418
     atom   42 type  1   force =     0.00006642   -0.00006642   -0.00003713
     atom   43 type  1   force =    -0.00005340    0.00005340   -0.00001049
     atom   44 type  1   force =    -0.00008908    0.00008908    0.00009418
     atom   45 type  1   force =    -0.00006642    0.00006642   -0.00003713
     atom   46 type  1   force =    -0.00005340   -0.00005340   -0.00001049
     atom   47 type  1   force =    -0.00008908   -0.00008908    0.00009418
     atom   48 type  1   force =    -0.00006642   -0.00006642   -0.00003713

     Total force =     0.001066     Total SCF correction =     0.000628
     SCF correction compared to forces is large: reduce conv_thr to get better values

     Computing stress (Cartesian axis) and pressure

     negative rho (up, down):  8.463E+00 0.000E+00
          total   stress  (Ry/bohr**3)                   (kbar)     P=      -42.69
  -0.00035470   0.00000000   0.00000000          -52.18        0.00        0.00
   0.00000000  -0.00035470   0.00000000            0.00      -52.18        0.00
   0.00000000   0.00000000  -0.00016116            0.00        0.00      -23.71

     kinetic stress (kbar)  28644.39      0.00      0.00
                                0.00  28644.39      0.00
                                0.00      0.00  28795.68

     local   stress (kbar)-770601.21      0.00      0.00
                                0.00-770601.21      0.00
                                0.00      0.00 793784.19

     nonloc. stress (kbar)   -173.96      0.00      0.00
                                0.00   -173.96      0.00
                                0.00      0.00   -141.22

     hartree stress (kbar) 392630.93     -0.00      0.00
                               -0.00 392630.93      0.00
                                0.00      0.00-379316.84

     exc-cor stress (kbar)  21072.89     -0.00     -0.00
                               -0.00  21072.89     -0.00
                               -0.00     -0.00  21067.92

     corecor stress (kbar) -29061.33      0.00     -0.00
                                0.00 -29061.33      0.00
                               -0.00      0.00 -29065.71

     ewald   stress (kbar) 357436.12      0.00      0.00
                                0.00 357436.12      0.00
                                0.00      0.00-435147.74

     hubbard stress (kbar)      0.00      0.00      0.00
                                0.00      0.00      0.00
                                0.00      0.00      0.00

     DFT-D   stress (kbar)      0.00      0.00      0.00
                                0.00      0.00      0.00
                                0.00      0.00      0.00

     XDM     stress (kbar)      0.00      0.00      0.00
                                0.00      0.00      0.00
                                0.00      0.00      0.00

     dft-nl  stress (kbar)      0.00      0.00      0.00
                                0.00      0.00      0.00
                                0.00      0.00      0.00

     TS-vdW  stress (kbar)      0.00      0.00      0.00
                                0.00      0.00      0.00
                                0.00      0.00      0.00

     Energy error            =      7.2E-05
     Gradient error          =      2.2E-04

     bfgs converged in  12 scf cycles and  11 bfgs steps
     (criteria: energy <  1.0E-04 Ry, force <  1.0E-03 Ry/Bohr)

     End of BFGS Geometry Optimization

     Final energy   =  -10112.1282830785 Ry

     File ./surface.bfgs deleted, as requested
Begin final coordinates

ATOMIC_POSITIONS (angstrom)
Pt            0.0000000000        0.0000000000        0.0980919143
Pt            0.0000000000        0.0000000000        3.9850287107
Pt            0.0000000000        0.0000000000        7.9224366880
Pt            0.0000000000        3.9767700000        0.0980716545
Pt            0.0000000000        3.9767700000        3.9850342947
Pt            0.0000000000        3.9767700000        7.9224379715
Pt            3.9767700000        0.0000000000        0.0980716545
Pt            3.9767700000        0.0000000000        3.9850342947
Pt            3.9767700000        0.0000000000        7.9224379715
Pt            3.9767700000        3.9767700000        0.0980688051
Pt            3.9767700000        3.9767700000        3.9850423691
Pt            3.9767700000        3.9767700000        7.9224363234
Pt            0.0000000000        1.9883748805        2.0194886660
Pt            0.0000000000        1.9883801445        5.9568735856
Pt            0.0000000000        1.9883825127        9.8438571811
Pt           -0.0000000000        5.9651651195        2.0194886660
Pt            0.0000000000        5.9651598555        5.9568735856
Pt            0.0000000000        5.9651574873        9.8438571811
Pt            3.9767700000        1.9883727445        2.0194931052
Pt            3.9767700000        1.9883781216        5.9568752997
Pt            3.9767700000        1.9883810630        9.8438611744
Pt            3.9767700000        5.9651672555        2.0194931052
Pt            3.9767700000        5.9651618784        5.9568752997
Pt            3.9767700000        5.9651589370        9.8438611744
Pt            1.9883748805       -0.0000000000        2.0194886660
Pt            1.9883801445        0.0000000000        5.9568735856
Pt            1.9883825127        0.0000000000        9.8438571811
Pt            1.9883727445        3.9767700000        2.0194931052
Pt            1.9883781216        3.9767700000        5.9568752997
Pt            1.9883810630        3.9767700000        9.8438611744
Pt            5.9651651195       -0.0000000000        2.0194886660
Pt            5.9651598555       -0.0000000000        5.9568735856
Pt            5.9651574873        0.0000000000        9.8438571811
Pt            5.9651672555        3.9767700000        2.0194931052
Pt            5.9651618784        3.9767700000        5.9568752997
Pt            5.9651589370        3.9767700000        9.8438611744
Pt            1.9883753905        1.9883753905        0.0980811452
Pt            1.9883750789        1.9883750789        3.9850351270
Pt            1.9883855149        1.9883855149        7.9224365529
Pt            1.9883753905        5.9651646095        0.0980811452
Pt            1.9883750789        5.9651649211        3.9850351270
Pt            1.9883855149        5.9651544851        7.9224365529
Pt            5.9651646095        1.9883753905        0.0980811452
Pt            5.9651649211        1.9883750789        3.9850351270
Pt            5.9651544851        1.9883855149        7.9224365529
Pt            5.9651646095        5.9651646095        0.0980811452
Pt            5.9651649211        5.9651649211        3.9850351270
Pt            5.9651544851        5.9651544851        7.9224365529
End final coordinates

     Writing output data file ./surface.save/

     General routines

     Parallel routines

   This run was terminated on:   3:37:32  10Dec2021

   JOB DONE.