     Program PWSCF v.6.7MaX starts on 10Dec2021 at  3:51:39

     R & G space division:  proc/nbgrp/npool/nimage =      16
     Reading input from ag_surface.110.qe.7656381.1_1_3.in

     Current dimensions of program PWSCF are:
     Max number of different atomic species (ntypx) = 10
     Max number of k-points (npk) =  40000
     Max angular momentum in pseudopotentials (lmaxx) =  3

     bravais-lattice index     =            8
     lattice parameter (alat)  =       7.8623  a.u.
     unit-cell volume          =    1555.0245 (a.u.)^3
     number of atoms/cell      =            6
     number of atomic types    =            1
     number of electrons       =       114.00
     number of Kohn-Sham states=           68
     kinetic-energy cutoff     =      30.0000  Ry
     charge density cutoff     =     300.0000  Ry
     scf convergence threshold =      1.0E-06
     mixing beta               =       0.3000
     number of iterations used =            8  plain     mixing
     energy convergence thresh.=      1.0E-04
     force convergence thresh. =      1.0E-03
     Exchange-correlation=  SLA  PW   PBX  PBC
                           (   1   4   3   4   0   0   0)
     nstep                     =           50

     celldm(1)=   7.862300  celldm(2)=   0.707106  celldm(3)=   4.524846
     celldm(4)=   0.000000  celldm(5)=   0.000000  celldm(6)=   0.000000

     crystal axes: (cart. coord. in units of alat)
               a(1) = (   1.000000   0.000000   0.000000 )
               a(2) = (   0.000000   0.707106   0.000000 )
               a(3) = (   0.000000   0.000000   4.524846 )

     reciprocal axes: (cart. coord. in units 2 pi/alat)
               b(1) = (  1.000000  0.000000  0.000000 )
               b(2) = (  0.000000  1.414215  0.000000 )
               b(3) = (  0.000000  0.000000  0.221002 )

     PseudoPot. # 1 for Ag read from file:
     /expanse/lustre/projects/csd622/tpascal/nano110/qe/pseudo/ag_pbe_v1.4.uspp.F.UPF
     MD5 check sum: d66d668201baa78d5eb5b04ef7011058
     Pseudo is Ultrasoft + core correction, Zval = 19.0
     Generated by new atomic code, or converted to UPF format
     Using radial grid of  887 points,  6 beta functions with:
                l(1) =   0
                l(2) =   0
                l(3) =   1
                l(4) =   1
                l(5) =   2
                l(6) =   2
     Q(r) pseudized with  6 coefficients,  rinner =    1.300   1.300   1.300
                                                       1.300   1.300

     atomic species   valence    mass     pseudopotential
        Ag            19.00   107.86820     Ag( 1.00)

      4 Sym. Ops. (no inversion) found

                                    s                        frac. trans.

      isym =  1     identity

 cryst.   s( 1) = (     1          0          0      )
                  (     0          1          0      )
                  (     0          0          1      )

 cart.    s( 1) = (  1.0000000  0.0000000  0.0000000 )
                  (  0.0000000  1.0000000  0.0000000 )
                  (  0.0000000  0.0000000  1.0000000 )

      isym =  2     180 deg rotation - cart. axis [0,0,1]

[...]

      isym =  3     inv. 180 deg rotation - cart. axis [0,1,0]

[...]

      isym =  4     inv. 180 deg rotation - cart. axis [1,0,0]

 cryst.   s( 4) = (    -1          0          0      )
                  (     0          1          0      )
                  (     0          0          1      )

 cart.    s( 4) = ( -1.0000000  0.0000000  0.0000000 )
                  (  0.0000000  1.0000000  0.0000000 )
                  (  0.0000000  0.0000000  1.0000000 )

     point group C_2v (mm2)
     there are  4 classes
     the character table:

       E     C2    s_v   s_v'
A_1    1.00  1.00  1.00  1.00
A_2    1.00  1.00 -1.00 -1.00
B_1    1.00 -1.00  1.00 -1.00
B_2    1.00 -1.00 -1.00  1.00

     the symmetry operations in each class and the name of the first element:

     E        1
          identity
     C2       2
          180 deg rotation - cart. axis [0,0,1]
     s_v      4
          inv. 180 deg rotation - cart. axis [1,0,0]
     s_v'     3
          inv. 180 deg rotation - cart. axis [0,1,0]

   Cartesian axes

     site n.     atom                  positions (alat units)
         1           Ag  tau(   1) = (   0.0000000   0.0000000   0.0000000  )
         2           Ag  tau(   2) = (   0.0000000   0.0000000   0.7071060  )
         3           Ag  tau(   3) = (   0.0000000   0.0000000   1.4142121  )
         4           Ag  tau(   4) = (   0.5000000   0.3535530   0.3535530  )
         5           Ag  tau(   5) = (   0.5000000   0.3535530   1.0606590  )
         6           Ag  tau(   6) = (   0.5000000   0.3535530   1.7677651  )

   Crystallographic axes

     site n.     atom                  positions (cryst. coord.)
         1           Ag  tau(   1) = (  0.0000000  0.0000000  0.0000000  )
         2           Ag  tau(   2) = (  0.0000000  0.0000000  0.1562718  )
         3           Ag  tau(   3) = (  0.0000000  0.0000000  0.3125437  )
         4           Ag  tau(   4) = (  0.5000000  0.5000000  0.0781359  )
         5           Ag  tau(   5) = (  0.5000000  0.5000000  0.2344077  )
         6           Ag  tau(   6) = (  0.5000000  0.5000000  0.3906796  )

     number of k points=     9  Gaussian smearing, width (Ry)=  0.0030
                       cart. coord. in units 2pi/alat
        k(    1) = (   0.0000000   0.0000000   0.0000000), wk =   0.1250000
        k(    2) = (   0.0000000   0.3535538   0.0000000), wk =   0.2500000
        k(    3) = (   0.0000000  -0.7071075   0.0000000), wk =   0.1250000
        k(    4) = (   0.2500000   0.0000000   0.0000000), wk =   0.2500000
        k(    5) = (   0.2500000   0.3535538   0.0000000), wk =   0.5000000
        k(    6) = (   0.2500000  -0.7071075   0.0000000), wk =   0.2500000
        k(    7) = (  -0.5000000   0.0000000   0.0000000), wk =   0.1250000
        k(    8) = (  -0.5000000   0.3535538   0.0000000), wk =   0.2500000
        k(    9) = (  -0.5000000  -0.7071075   0.0000000), wk =   0.1250000

                       cryst. coord.
        k(    1) = (   0.0000000   0.0000000   0.0000000), wk =   0.1250000
        k(    2) = (   0.0000000   0.2500000   0.0000000), wk =   0.2500000
        k(    3) = (   0.0000000  -0.5000000   0.0000000), wk =   0.1250000
        k(    4) = (   0.2500000   0.0000000   0.0000000), wk =   0.2500000
        k(    5) = (   0.2500000   0.2500000   0.0000000), wk =   0.5000000
        k(    6) = (   0.2500000  -0.5000000   0.0000000), wk =   0.2500000
        k(    7) = (  -0.5000000   0.0000000   0.0000000), wk =   0.1250000
        k(    8) = (  -0.5000000   0.2500000   0.0000000), wk =   0.2500000
        k(    9) = (  -0.5000000  -0.5000000   0.0000000), wk =   0.1250000

     Initial potential from superposition of free atoms

     starting charge  110.99972, renormalised to  114.00000

     negative rho (up, down):  1.085E-03 0.000E+00
     Starting wfcs are   78 randomized atomic wfcs

     Self-consistent Calculation

     iteration #  1     ecut=    30.00 Ry     beta= 0.30
     Davidson diagonalization with overlap
     ethr =  1.00E-02,  avg # of iterations =  5.6

     total energy              =   -1771.26411921 Ry
     estimated scf accuracy    <      10.01479064 Ry

[...]

     negative rho (up, down):  1.331E-07 0.000E+00

[...]

     End of self-consistent calculation

          k = 0.0000 0.0000 0.0000 (  4295 PWs)   bands (ev):

   -86.4285 -86.4193 -86.4093 -86.4088 -86.1656 -86.1656 -49.9355 -49.9031
   -49.9005 -49.8968 -49.8751 -49.8620 -49.8590 -49.8551 -49.8420 -49.8370
   -49.8353 -49.8337 -49.6352 -49.6347 -49.6286 -49.6284 -49.6063 -49.6056
    -1.5225  -0.5018  -0.4592  -0.2267  -0.1181   0.2944   0.3054   0.5467
     0.6180   0.6336   0.8531   0.9568   0.9700   0.9903   1.1421   1.2638
     1.2802   1.2890   1.5337   1.5357   1.7197   1.7461   1.7701   1.8207
     1.8418   2.1130   2.1352   2.1498   2.3871   2.4306   2.4776   2.6515
     3.1657   4.9536   6.9652   7.8340   8.9063   9.1172   9.6814  11.1801
    11.6905  12.0100  12.0757  12.6433

     occupation numbers
     1.0000   1.0000   1.0000   1.0000   1.0000   1.0000   1.0000   1.0000
     1.0000   1.0000   1.0000   1.0000   1.0000   1.0000   1.0000   1.0000
     1.0000   1.0000   1.0000   1.0000   1.0000   1.0000   1.0000   1.0000
     1.0000   1.0000   1.0000   1.0000   1.0000   1.0000   1.0000   1.0000
     1.0000   1.0000   1.0000   1.0000   1.0000   1.0000   1.0000   1.0000
     1.0000   1.0000   1.0000   1.0000   1.0000   1.0000   1.0000   1.0000
     1.0000   1.0000   1.0000   1.0000   1.0000   1.0000   1.0000   1.0000
     1.0000   1.0000   0.0000   0.0000   0.0000   0.0000   0.0000   0.0000
     0.0000   0.0000   0.0000   0.0000

[...]

          k =-0.5000 0.0000 0.0000 (  4318 PWs)   bands (ev):

[...]

     the Fermi energy is     5.3976 ev

!    total energy              =   -1773.57460692 Ry
     estimated scf accuracy    <       0.00000033 Ry
     smearing contrib. (-TS)   =      -0.00043269 Ry
     internal energy E=F+TS    =   -1773.57417423 Ry

     The total energy is F=E-TS. E is the sum of the following terms:
     one-electron contribution =   -7142.25615814 Ry
     hartree contribution      =    3580.57864320 Ry
     xc contribution           =    -173.66706173 Ry
     ewald contribution        =    1961.77040243 Ry

     convergence has been achieved in  12 iterations

[...]

     Forces acting on atoms (cartesian axes, Ry/au):

     atom    1 type  1   force =     0.00000000    0.00000000    0.01038835
     atom    2 type  1   force =     0.00000000    0.00000000    0.00630273
     atom    3 type  1   force =     0.00000000    0.00000000    0.00817333
     atom    4 type  1   force =     0.00000000    0.00000000   -0.00815307
     atom    5 type  1   force =     0.00000000    0.00000000   -0.00639590
     atom    6 type  1   force =     0.00000000    0.00000000   -0.01031545
     The non-local contrib.  to forces
     atom    1 type  1   force =     0.00000000    0.00000000   -0.26856896
     atom    2 type  1   force =     0.00000000    0.00000000   -0.08926054
     atom    3 type  1   force =     0.00000000    0.00000000    0.02096578
     atom    4 type  1   force =     0.00000000    0.00000000   -0.02098780
     atom    5 type  1   force =     0.00000000    0.00000000    0.08917139
     atom    6 type  1   force =     0.00000000    0.00000000    0.26855397
     The ionic contribution  to forces
     atom    1 type  1   force =    -0.00000000    0.00000000 -256.46892799
     atom    2 type  1   force =    -0.00000000    0.00000000  -54.85162202
     atom    3 type  1   force =    -0.00000000    0.00000000  168.19524399
     atom    4 type  1   force =     0.00000000    0.00000000 -168.19524399
     atom    5 type  1   force =    -0.00000000    0.00000000   54.85162202
     atom    6 type  1   force =    -0.00000000    0.00000000  256.46892799
     The local contribution  to forces
     atom    1 type  1   force =    -0.00000000    0.00000000  256.74485514
     atom    2 type  1   force =    -0.00000000    0.00000000   54.94711548
     atom    3 type  1   force =    -0.00000000   -0.00000000 -168.20498970
     atom    4 type  1   force =     0.00000000    0.00000000  168.20491730
     atom    5 type  1   force =     0.00000000    0.00000000  -54.94650374
     atom    6 type  1   force =     0.00000000    0.00000000 -256.74523467
     The core correction contribution to forces
     atom    1 type  1   force =    -0.00000000    0.00000000    0.00149375
     atom    2 type  1   force =    -0.00000000   -0.00000000    0.00036997
     atom    3 type  1   force =     0.00000000   -0.00000000   -0.00029291
     atom    4 type  1   force =    -0.00000000    0.00000000    0.00029036
     atom    5 type  1   force =     0.00000000   -0.00000000   -0.00036866
     atom    6 type  1   force =     0.00000000    0.00000000   -0.00149150
     The Hubbard contrib.    to forces
     atom    1 type  1   force =     0.00000000    0.00000000    0.00000000
     atom    2 type  1   force =     0.00000000    0.00000000    0.00000000
     atom    3 type  1   force =     0.00000000    0.00000000    0.00000000
     atom    4 type  1   force =     0.00000000    0.00000000    0.00000000
     atom    5 type  1   force =     0.00000000    0.00000000    0.00000000
     atom    6 type  1   force =     0.00000000    0.00000000    0.00000000
     The SCF correction term to forces
     atom    1 type  1   force =     0.00000000   -0.00000000    0.00153853
     atom    2 type  1   force =     0.00000000    0.00000000   -0.00029803
     atom    3 type  1   force =     0.00000000   -0.00000000   -0.00275170
     atom    4 type  1   force =     0.00000000    0.00000000    0.00287320
     atom    5 type  1   force =     0.00000000    0.00000000   -0.00031478
     atom    6 type  1   force =    -0.00000000   -0.00000000   -0.00106911

     Total force =     0.020694     Total SCF correction =     0.004419
     SCF correction compared to forces is large: reduce conv_thr to get better values

     Computing stress (Cartesian axis) and pressure

     negative rho (up, down):  9.180E-04 0.000E+00
          total   stress  (Ry/bohr**3)                   (kbar)     P=      -56.82
  -0.00036426   0.00000000   0.00000000          -53.58        0.00        0.00
   0.00000000  -0.00041665   0.00000000            0.00      -61.29        0.00
   0.00000000   0.00000000  -0.00037790            0.00        0.00      -55.59

     kinetic stress (kbar)  25394.08      0.00      0.00
                                0.00  25326.41      0.00
                                0.00      0.00  25404.77

     local   stress (kbar)-591266.57      0.00     -0.00
                                0.00-597806.96     -0.00
                               -0.00     -0.00 595144.16

     nonloc. stress (kbar)   2970.69      0.00      0.00
                                0.00   2975.68      0.00
                                0.00      0.00   2958.16

     hartree stress (kbar) 307351.70      0.00      0.00
                                0.00 310117.72      0.00
                                0.00      0.00-278747.22

     exc-cor stress (kbar)  -4572.79     -0.00     -0.00
                               -0.00  -4571.43     -0.00
                               -0.00     -0.00  -4575.97

     corecor stress (kbar)   -618.70      0.00      0.00
                                0.00   -618.71      0.00
                                0.00      0.00   -618.66

     ewald   stress (kbar) 260688.01     -0.00      0.00
                               -0.00 264516.00      0.00
                                0.00      0.00-339620.83

     hubbard stress (kbar)      0.00      0.00      0.00
                                0.00      0.00      0.00
                                0.00      0.00      0.00

     DFT-D   stress (kbar)      0.00      0.00      0.00
                                0.00      0.00      0.00
                                0.00      0.00      0.00

     XDM     stress (kbar)      0.00      0.00      0.00
                                0.00      0.00      0.00
                                0.00      0.00      0.00

     dft-nl  stress (kbar)      0.00      0.00      0.00
                                0.00      0.00      0.00
                                0.00      0.00      0.00

     TS-vdW  stress (kbar)      0.00      0.00      0.00
                                0.00      0.00      0.00
                                0.00      0.00      0.00

     BFGS Geometry Optimization
     Energy error            =      0.0E+00
     Gradient error          =      1.0E-02

     number of scf cycles    =   1
     number of bfgs steps    =   0

     energy   new            =   -1773.5746069211 Ry

     new trust radius        =       0.0103883466 bohr
     new conv_thr            =       0.0000010000 Ry

ATOMIC_POSITIONS (angstrom)
Ag            0.0000000000        0.0000000000        0.0054972763
Ag            0.0000000000        0.0000000000        2.9452852630
Ag            0.0000000000        0.0000000000        5.8882251400
Ag            2.0802750000        1.4709750000        1.4666605829
Ag            2.0802750000        1.4709750000        4.4095404373
Ag            2.0802750000        1.4709750000        7.3494163005

     Writing output data file ./surface.save/
     NEW-OLD atomic charge density approx. for the potential

[...]

     Threshold (ethr) on eigenvalues was too large:
     Diagonalizing with lowered threshold

     Davidson diagonalization with overlap
     ethr =  5.63E-08,  avg # of iterations =  1.3

[...]

     Energy error            =      4.2E-04
     Gradient error          =      1.0E-02

[...]

     energy   old            =   -1773.5746069211 Ry
     energy   new            =   -1773.5750267592 Ry

     CASE: energy  _new < energy  _old

     WARNING: bfgs curvature condition failed, Theta= 0.825
     new trust radius        =       0.0114271812 bohr
     new conv_thr            =       0.0000000420 Ry

[...]

     Total force =     0.017850     Total SCF correction =     0.000534

[...]

     Total force =     0.011740     Total SCF correction =     0.001090

[...]

     Threshold (ethr) on eigenvalues was too large:
     Diagonalizing with lowered threshold

     Davidson diagonalization with overlap
     ethr =  5.97E-08,  avg # of iterations =  1.2

[...]

     number of scf cycles    =  11
     number of bfgs steps    =  10

     energy   old            =   -1773.5777778085 Ry
     energy   new            =   -1773.5778248592 Ry

     CASE: energy  _new < energy  _old

     new trust radius        =       0.0158560997 bohr
     new conv_thr            =       0.0000000100 Ry

ATOMIC_POSITIONS (angstrom)
Ag            0.0000000000        0.0000000000        0.1022271502
Ag            0.0000000000        0.0000000000        2.9980490747
Ag            0.0000000000        0.0000000000        5.9214898014
Ag            2.0802750000        1.4709750000        1.4328728492
Ag            2.0802750000        1.4709750000        4.3575361442
Ag            2.0802750000        1.4709750000        7.2524499802

     Writing output data file ./surface.save/
     NEW-OLD atomic charge density approx. for the potential

[...]

     Self-consistent Calculation

[...]

     total energy              =   -1773.57784867 Ry
     estimated scf accuracy    <       0.00000005 Ry

     iteration #  7     ecut=    30.00 Ry     beta= 0.30
     Davidson diagonalization with overlap
     ethr =  4.61E-11,  avg # of iterations =  1.2

[...]

     End of self-consistent calculation

[...]

          k = 0.2500-0.7071 0.0000 (  4342 PWs)   bands (ev):

[...]

          k =-0.5000-0.7071 0.0000 (  4376 PWs)   bands (ev):

   -86.4476 -86.4475 -86.4397 -86.4393 -86.2324 -86.2323 -49.9806 -49.9806
   -49.9576 -49.9575 -49.9243 -49.9243 -49.9117 -49.9115 -49.8832 -49.8831
   -49.8738 -49.8735 -49.7586 -49.7585 -49.6967 -49.6967 -49.6772 -49.6770
    -0.4250  -0.4250   0.1274   0.1276   0.1687   0.1690   0.5343   0.5349
     0.6233   0.6237   0.7814   0.7816   0.8657   0.8662   0.9546   0.9547
     1.4456   1.4457   1.5157   1.5159   1.8547   1.8549   2.1521   2.1522
     2.4508   2.4510   2.4910   2.4910   2.5651   2.5651   5.8440   5.8440
     7.5864   7.5864   8.8575   8.8577   9.3314   9.3317   9.7390   9.7392
    10.4776  10.4779  11.8568  11.8569

     occupation numbers
     1.0000   1.0000   1.0000   1.0000   1.0000   1.0000   1.0000   1.0000
     1.0000   1.0000   1.0000   1.0000   1.0000   1.0000   1.0000   1.0000
     1.0000   1.0000   1.0000   1.0000   1.0000   1.0000   1.0000   1.0000
     1.0000   1.0000   1.0000   1.0000   1.0000   1.0000   1.0000   1.0000
     1.0000   1.0000   1.0000   1.0000   1.0000   1.0000   1.0000   1.0000
     1.0000   1.0000   1.0000   1.0000   1.0000   1.0000   1.0000   1.0000
     1.0000   1.0000   1.0000   1.0000   1.0000   1.0000   0.0000   0.0000
     0.0000   0.0000   0.0000   0.0000   0.0000   0.0000   0.0000   0.0000
     0.0000   0.0000   0.0000   0.0000

     the Fermi energy is     5.3494 ev

!    total energy              =   -1773.57784868 Ry
     estimated scf accuracy    <          9.5E-09 Ry
     smearing contrib. (-TS)   =      -0.00042314 Ry
     internal energy E=F+TS    =   -1773.57742554 Ry

     The total energy is F=E-TS. E is the sum of the following terms:
     one-electron contribution =   -7315.04545365 Ry
     hartree contribution      =    3666.80824693 Ry
     xc contribution           =    -173.70664201 Ry
     ewald contribution        =    2048.36642319 Ry

     convergence has been achieved in   7 iterations

     negative rho (up, down):  9.475E-04 0.000E+00

     Forces acting on atoms (cartesian axes, Ry/au):

     atom    1 type  1   force =     0.00000000    0.00000000    0.00000528
     atom    2 type  1   force =     0.00000000    0.00000000   -0.00078653
     atom    3 type  1   force =     0.00000000    0.00000000   -0.00018685
     atom    4 type  1   force =     0.00000000    0.00000000    0.00030724
     atom    5 type  1   force =     0.00000000    0.00000000    0.00059154
     atom    6 type  1   force =     0.00000000    0.00000000    0.00006931
     The non-local contrib.  to forces
     atom    1 type  1   force =     0.00000000    0.00000000   -0.26252740
     atom    2 type  1   force =     0.00000000    0.00000000   -0.09868875
     atom    3 type  1   force =     0.00000000    0.00000000    0.00010672
     atom    4 type  1   force =     0.00000000    0.00000000    0.00012598
     atom    5 type  1   force =     0.00000000    0.00000000    0.09843774
     atom    6 type  1   force =     0.00000000    0.00000000    0.26265483
     The ionic contribution  to forces
     atom    1 type  1   force =    -0.00000000   -0.00000000 -258.97418291
     atom    2 type  1   force =    -0.00000000   -0.00000000  -52.26845742
     atom    3 type  1   force =     0.00000000   -0.00000000  172.83084184
     atom    4 type  1   force =     0.00000000    0.00000000 -172.83316660
     atom    5 type  1   force =     0.00000000    0.00000000   52.24243240
     atom    6 type  1   force =     0.00000000    0.00000000  259.00253269
     The local contribution  to forces
     atom    1 type  1   force =    -0.00000000    0.00000000  259.23547650
     atom    2 type  1   force =     0.00000000   -0.00000000   52.36618611
     atom    3 type  1   force =     0.00000000    0.00000000 -172.83119022
     atom    4 type  1   force =     0.00000000    0.00000000  172.83329275
     atom    5 type  1   force =    -0.00000000    0.00000000  -52.33995678
     atom    6 type  1   force =     0.00000000    0.00000000 -259.26400030
     The core correction contribution to forces
     atom    1 type  1   force =    -0.00000000    0.00000000    0.00147123
     atom    2 type  1   force =    -0.00000000   -0.00000000    0.00035733
     atom    3 type  1   force =    -0.00000000    0.00000000   -0.00028444
     atom    4 type  1   force =    -0.00000000    0.00000000    0.00028491
     atom    5 type  1   force =    -0.00000000    0.00000000   -0.00035467
     atom    6 type  1   force =    -0.00000000    0.00000000   -0.00146802
     The Hubbard contrib.    to forces
     atom    1 type  1   force =     0.00000000    0.00000000    0.00000000
     atom    2 type  1   force =     0.00000000    0.00000000    0.00000000
     atom    3 type  1   force =     0.00000000    0.00000000    0.00000000
     atom    4 type  1   force =     0.00000000    0.00000000    0.00000000
     atom    5 type  1   force =     0.00000000    0.00000000    0.00000000
     atom    6 type  1   force =     0.00000000    0.00000000    0.00000000
     The SCF correction term to forces
     atom    1 type  1   force =     0.00000000   -0.00000000   -0.00021978
     atom    2 type  1   force =    -0.00000000   -0.00000000   -0.00017142
     atom    3 type  1   force =     0.00000000   -0.00000000    0.00035162
     atom    4 type  1   force =     0.00000000   -0.00000000   -0.00021742
     atom    5 type  1   force =    -0.00000000   -0.00000000    0.00004522
     atom    6 type  1   force =    -0.00000000   -0.00000000    0.00036247

     Total force =     0.001050     Total SCF correction =     0.000618
     SCF correction compared to forces is large: reduce conv_thr to get better values

     Computing stress (Cartesian axis) and pressure

     negative rho (up, down):  9.475E-04 0.000E+00
          total   stress  (Ry/bohr**3)                   (kbar)     P=      -49.33
  -0.00030519   0.00000000   0.00000000          -44.89        0.00        0.00
   0.00000000  -0.00038360   0.00000000            0.00      -56.43        0.00
   0.00000000   0.00000000  -0.00031724            0.00        0.00      -46.67

     kinetic stress (kbar)  25393.43      0.00      0.00
                                0.00  25329.70      0.00
                                0.00      0.00  25419.40

     local   stress (kbar)-609548.63     -0.00     -0.00
                               -0.00-614582.59     -0.00
                               -0.00     -0.00 613851.73

     nonloc. stress (kbar)   2974.70      0.00      0.00
                                0.00   2979.98      0.00
                                0.00      0.00   2958.73

     hartree stress (kbar) 316291.82     -0.00     -0.00
                               -0.00 318439.83      0.00
                               -0.00      0.00-287852.14

     exc-cor stress (kbar)  -4573.32     -0.00     -0.00
                               -0.00  -4572.54     -0.00
                               -0.00     -0.00  -4577.18

     corecor stress (kbar)   -618.70     -0.00      0.00
                               -0.00   -618.71     -0.00
                                0.00     -0.00   -618.64

     ewald   stress (kbar) 270035.80     -0.00      0.00
                               -0.00 272967.91      0.00
                                0.00      0.00-349228.55

     hubbard stress (kbar)      0.00      0.00      0.00
                                0.00      0.00      0.00
                                0.00      0.00      0.00

     DFT-D   stress (kbar)      0.00      0.00      0.00
                                0.00      0.00      0.00
                                0.00      0.00      0.00

     XDM     stress (kbar)      0.00      0.00      0.00
                                0.00      0.00      0.00
                                0.00      0.00      0.00

     dft-nl  stress (kbar)      0.00      0.00      0.00
                                0.00      0.00      0.00
                                0.00      0.00      0.00

     TS-vdW  stress (kbar)      0.00      0.00      0.00
                                0.00      0.00      0.00
                                0.00      0.00      0.00

     Energy error            =      2.4E-05
     Gradient error          =      7.9E-04

     bfgs converged in  12 scf cycles and  11 bfgs steps
     (criteria: energy <  1.0E-04 Ry, force <  1.0E-03 Ry/Bohr)

     End of BFGS Geometry Optimization

     Final energy   =   -1773.5778486782 Ry

     File ./surface.bfgs deleted, as requested
Begin final coordinates

ATOMIC_POSITIONS (angstrom)
Ag            0.0000000000        0.0000000000        0.1022271502
Ag            0.0000000000        0.0000000000        2.9980490747
Ag            0.0000000000        0.0000000000        5.9214898014
Ag            2.0802750000        1.4709750000        1.4328728492
Ag            2.0802750000        1.4709750000        4.3575361442
Ag            2.0802750000        1.4709750000        7.2524499802
End final coordinates

     Writing output data file ./surface.save/

     General routines

     Parallel routines

   This run was terminated on:   3:53: 6  10Dec2021

   JOB DONE.