     Program PWSCF v.6.7MaX starts on 10Dec2021 at  3:54:15

     R & G space division:  proc/nbgrp/npool/nimage =      16
     Reading input from ag_surface.100.qe.7656472.1_1_3.in

     Current dimensions of program PWSCF are:
     Max number of different atomic species (ntypx) = 10
     Max number of k-points (npk) =  40000
     Max angular momentum in pseudopotentials (lmaxx) =  3

     Found symmetry operation: I + ( -0.5000 -0.5000  0.0000)
     This is a supercell, fractional translations are disabled

     bravais-lattice index     =            8
     lattice parameter (alat)  =       7.8623  a.u.
     unit-cell volume          =    2626.1908 (a.u.)^3
     number of atoms/cell      =           12
     number of atomic types    =            1
     number of electrons       =       228.00
     number of Kohn-Sham states=          137
     kinetic-energy cutoff     =      30.0000  Ry
     charge density cutoff     =     300.0000  Ry
     scf convergence threshold =      1.0E-06
     mixing beta               =       0.3000
     number of iterations used =            8  plain     mixing
     energy convergence thresh.=      1.0E-04
     force convergence thresh. =      1.0E-03
     Exchange-correlation=  SLA  PW   PBX  PBC
                           (   1   4   3   4   0   0   0)
     nstep                     =           50

     celldm(1)=   7.862300  celldm(2)=   1.000000  celldm(3)=   5.403528
     celldm(4)=   0.000000  celldm(5)=   0.000000  celldm(6)=   0.000000

     crystal axes: (cart. coord. in units of alat)
               a(1) = (   1.000000   0.000000   0.000000 )
               a(2) = (   0.000000   1.000000   0.000000 )
               a(3) = (   0.000000   0.000000   5.403528 )

     reciprocal axes: (cart. coord. in units 2 pi/alat)
               b(1) = (  1.000000  0.000000  0.000000 )
               b(2) = (  0.000000  1.000000  0.000000 )
               b(3) = (  0.000000  0.000000  0.185064 )

     PseudoPot. # 1 for Ag read from file:
     /expanse/lustre/projects/csd622/tpascal/nano110/qe/pseudo/ag_pbe_v1.4.uspp.F.UPF
     MD5 check sum: d66d668201baa78d5eb5b04ef7011058
     Pseudo is Ultrasoft + core correction, Zval = 19.0
     Generated by new atomic code, or converted to UPF format
     Using radial grid of  887 points,  6 beta functions with:
                l(1) =   0
                l(2) =   0
                l(3) =   1
                l(4) =   1
                l(5) =   2
                l(6) =   2
     Q(r) pseudized with  6 coefficients,  rinner =    1.300   1.300   1.300
                                                       1.300   1.300

     atomic species   valence    mass     pseudopotential
        Ag            19.00   107.86820     Ag( 1.00)

      8 Sym. Ops. (no inversion) found

                                    s                        frac. trans.

      isym =  1     identity

 cryst.   s( 1) = (     1          0          0      )
                  (     0          1          0      )
                  (     0          0          1      )

 cart.    s( 1) = (  1.0000000  0.0000000  0.0000000 )
                  (  0.0000000  1.0000000  0.0000000 )
                  (  0.0000000  0.0000000  1.0000000 )

      isym =  2     180 deg rotation - cart. axis [0,0,1]

[...]

      isym =  4      90 deg rotation - cart. axis [0,0,1]

[...]

      isym =  5     inv. 180 deg rotation - cart. axis [0,1,0]

[...]

      isym =  8     inv. 180 deg rotation - cart. axis [1,-1,0]

 cryst.   s( 8) = (     0          1          0      )
                  (     1          0          0      )
                  (     0          0          1      )

 cart.    s( 8) = (  0.0000000  1.0000000  0.0000000 )
                  (  1.0000000  0.0000000  0.0000000 )
                  (  0.0000000  0.0000000  1.0000000 )

     point group C_4v (4mm)
     there are  5 classes
     the character table:

       E     2C4   C2    2s_v  2s_d
A_1    1.00  1.00  1.00  1.00  1.00
A_2    1.00  1.00  1.00 -1.00 -1.00
B_1    1.00 -1.00  1.00  1.00 -1.00
B_2    1.00 -1.00  1.00 -1.00  1.00
E      2.00  0.00 -2.00  0.00  0.00

     the symmetry operations in each class and the name of the first element:

     E        1
          identity
     2C4      3    4
           90 deg rotation - cart. axis [0,0,-1]
     C2       2
          180 deg rotation - cart. axis [0,0,1]
     2s_v     5    6
          inv. 180 deg rotation - cart. axis [0,1,0]
     2s_d     7    8
          inv. 180 deg rotation - cart. axis [1,1,0]

   Cartesian axes

     site n.     atom                  positions (alat units)
         1           Ag  tau(   1) = (   0.0000000   0.0000000   0.0000000  )
         2           Ag  tau(   2) = (   0.0000000   0.0000000   1.0000000  )
         3           Ag  tau(   3) = (   0.0000000   0.0000000   2.0000000  )
         4           Ag  tau(   4) = (   0.0000000   0.5000000   0.5000000  )
         5           Ag  tau(   5) = (   0.0000000   0.5000000   1.5000000  )
         6           Ag  tau(   6) = (   0.0000000   0.5000000   2.5000000  )
         7           Ag  tau(   7) = (   0.5000000   0.0000000   0.5000000  )
         8           Ag  tau(   8) = (   0.5000000   0.0000000   1.5000000  )
         9           Ag  tau(   9) = (   0.5000000   0.0000000   2.5000000  )
        10           Ag  tau(  10) = (   0.5000000   0.5000000   0.0000000  )
        11           Ag  tau(  11) = (   0.5000000   0.5000000   1.0000000  )
        12           Ag  tau(  12) = (   0.5000000   0.5000000   2.0000000  )

   Crystallographic axes

     site n.     atom                  positions (cryst. coord.)
         1           Ag  tau(   1) = (  0.0000000  0.0000000  0.0000000  )
         2           Ag  tau(   2) = (  0.0000000  0.0000000  0.1850643  )
         3           Ag  tau(   3) = (  0.0000000  0.0000000  0.3701285  )
         4           Ag  tau(   4) = (  0.0000000  0.5000000  0.0925321  )
         5           Ag  tau(   5) = (  0.0000000  0.5000000  0.2775964  )
         6           Ag  tau(   6) = (  0.0000000  0.5000000  0.4626607  )
         7           Ag  tau(   7) = (  0.5000000  0.0000000  0.0925321  )
         8           Ag  tau(   8) = (  0.5000000  0.0000000  0.2775964  )
         9           Ag  tau(   9) = (  0.5000000  0.0000000  0.4626607  )
        10           Ag  tau(  10) = (  0.5000000  0.5000000  0.0000000  )
        11           Ag  tau(  11) = (  0.5000000  0.5000000  0.1850643  )
        12           Ag  tau(  12) = (  0.5000000  0.5000000  0.3701285  )

     number of k points=     6  Gaussian smearing, width (Ry)=  0.0030
                       cart. coord. in units 2pi/alat
        k(    1) = (   0.0000000   0.0000000   0.0000000), wk =   0.1250000
        k(    2) = (   0.0000000   0.2500000   0.0000000), wk =   0.5000000
        k(    3) = (   0.0000000  -0.5000000   0.0000000), wk =   0.2500000
        k(    4) = (   0.2500000   0.2500000   0.0000000), wk =   0.5000000
        k(    5) = (   0.2500000  -0.5000000   0.0000000), wk =   0.5000000
        k(    6) = (  -0.5000000  -0.5000000   0.0000000), wk =   0.1250000

                       cryst. coord.
        k(    1) = (   0.0000000   0.0000000   0.0000000), wk =   0.1250000
        k(    2) = (   0.0000000   0.2500000   0.0000000), wk =   0.5000000
        k(    3) = (   0.0000000  -0.5000000   0.0000000), wk =   0.2500000
        k(    4) = (   0.2500000   0.2500000   0.0000000), wk =   0.5000000
        k(    5) = (   0.2500000  -0.5000000   0.0000000), wk =   0.5000000
        k(    6) = (  -0.5000000  -0.5000000   0.0000000), wk =   0.1250000

     Initial potential from superposition of free atoms

     starting charge  221.99943, renormalised to  228.00000

     negative rho (up, down):  1.711E-03 0.000E+00
     Starting wfcs are  156 randomized atomic wfcs

     Self-consistent Calculation

     iteration #  1     ecut=    30.00 Ry     beta= 0.30
     Davidson diagonalization with overlap
     ethr =  1.00E-02,  avg # of iterations =  5.8

     total energy              =   -3543.09199721 Ry
     estimated scf accuracy    <      18.84390276 Ry

[...]

     negative rho (up, down):  3.445E-08 0.000E+00

[...]

     End of self-consistent calculation

          k = 0.0000 0.0000 0.0000 (  7307 PWs)   bands (ev):

   -84.8215 -84.8212 -84.8117 -84.8116 -84.8022 -84.7938 -84.7902 -84.7901
   -84.5258 -84.5256 -84.5171 -84.5169 -48.3312 -48.3312 -48.3230 -48.3230
   -48.3150 -48.2915 -48.2906 -48.2906 -48.2615 -48.2615 -48.2614 -48.2613
   -48.2612 -48.2612 -48.2581 -48.2581 -48.2527 -48.2495 -48.2493 -48.2307
   -48.2307 -48.2150 -48.2090 -48.2090 -48.0254 -48.0254 -48.0252 -48.0252
   -47.9825 -47.9819 -47.9742 -47.9741 -47.9645 -47.9645 -47.9642 -47.9642
    -0.0699   0.5739   1.0921   1.1061   1.1061   1.1813   1.2291   1.2291
     1.2503   1.3878   1.4162   1.4162   1.5696   1.5751   1.5751   1.6919
     1.7162   1.8791   1.8793   2.0541   2.1381   2.1381   2.2961   2.4339
     2.5672   2.5672   2.8263   2.8263   2.8322   2.8322   3.2282   3.2282
     3.2411   3.2675   3.3795   3.4564   3.5501   3.5501   3.5729   3.5808
     3.5809   3.6718   3.6718   3.7681   3.8563   3.8563   3.9714   4.0404
     4.0404   4.0547   4.0548   4.1093   4.1187   4.1187   4.1376   4.1878
     4.2652   4.2652   4.2990   4.2991   4.3407   4.3408   4.5659   4.5661
     5.8551   7.5946   8.5644   9.1722   9.1722  10.2836  10.2836  10.8742
    11.6655  11.7938  11.7938  13.4571  13.4571  13.4590  13.4590  13.4914
    13.5882  13.5882  13.8101  13.8103  14.4904  15.1479  15.1479  15.2733
    15.2734

     occupation numbers
     1.0000   1.0000   1.0000   1.0000   1.0000   1.0000   1.0000   1.0000
     1.0000   1.0000   1.0000   1.0000   1.0000   1.0000   1.0000   1.0000
     1.0000   1.0000   1.0000   1.0000   1.0000   1.0000   1.0000   1.0000
     1.0000   1.0000   1.0000   1.0000   1.0000   1.0000   1.0000   1.0000
     1.0000   1.0000   1.0000   1.0000   1.0000   1.0000   1.0000   1.0000
     1.0000   1.0000   1.0000   1.0000   1.0000   1.0000   1.0000   1.0000
     1.0000   1.0000   1.0000   1.0000   1.0000   1.0000   1.0000   1.0000
     1.0000   1.0000   1.0000   1.0000   1.0000   1.0000   1.0000   1.0000
     1.0000   1.0000   1.0000   1.0000   1.0000   1.0000   1.0000   1.0000
     1.0000   1.0000   1.0000   1.0000   1.0000   1.0000   1.0000   1.0000
     1.0000   1.0000   1.0000   1.0000   1.0000   1.0000   1.0000   1.0000
     1.0000   1.0000   1.0000   1.0000   1.0000   1.0000   1.0000   1.0000
     1.0000   1.0000   1.0000   1.0000   1.0000   1.0000   1.0000   1.0000
     1.0000   1.0000   1.0000   1.0000   1.0000   1.0000   1.0000   1.0000
     1.0000   0.0000   0.0000   0.0000   0.0000   0.0000   0.0000   0.0000
     0.0000   0.0000   0.0000   0.0000   0.0000   0.0000   0.0000   0.0000
     0.0000   0.0000   0.0000   0.0000   0.0000   0.0000   0.0000   0.0000
     0.0000

[...]

          k =-0.5000-0.5000 0.0000 (  7300 PWs)   bands (ev):

[...]

     the Fermi energy is     7.3204 ev

!    total energy              =   -3547.23006822 Ry
     estimated scf accuracy    <       0.00000028 Ry
     smearing contrib. (-TS)   =      -0.00086432 Ry
[...]
     NEW-OLD atomic charge density approx. for the potential

[...]

     Energy error            =      1.2E-04
     Gradient error          =      3.8E-03

[...]

     energy   old            =   -3547.2300682223 Ry
     energy   new            =   -3547.2301837106 Ry

     CASE: energy  _new < energy  _old

     WARNING: bfgs curvature condition failed, Theta= 0.885
     new trust radius        =       0.0045507954 bohr
     new conv_thr            =       0.0000000115 Ry

[...]

     Total force =     0.008842     Total SCF correction =     0.000106

[...]

     Threshold (ethr) on eigenvalues was too large:
     Diagonalizing with lowered threshold

     Davidson diagonalization with overlap
     ethr =  2.26E-08,  avg # of iterations =  2.0

[...]

     Threshold (ethr) on eigenvalues was too large:
     Diagonalizing with lowered threshold

     Davidson diagonalization with overlap
     ethr =  5.01E-08,  avg # of iterations =  1.0

[...]

     Total force =     0.003214     Total SCF correction =     0.000197

[...]

     number of scf cycles    =  14
     number of bfgs steps    =  13

     energy   old            =   -3547.2308658395 Ry
     energy   new            =   -3547.2308940254 Ry

     CASE: energy  _new < energy  _old

     new trust radius        =       0.0123661920 bohr
     new conv_thr            =       0.0000000100 Ry

ATOMIC_POSITIONS (angstrom)
Ag            0.0000000000        0.0000000000        0.0552402550
Ag            0.0000000000        0.0000000000        4.1691705967
Ag            0.0000000000        0.0000000000        8.3112152486
Ag            0.0000000000        2.0802750000        2.0900204078
Ag            0.0000000000        2.0802750000        6.2322804436
Ag            0.0000000000        2.0802750000       10.3461698913
Ag            2.0802750000        0.0000000000        2.0900204078
Ag            2.0802750000        0.0000000000        6.2322804436
Ag            2.0802750000        0.0000000000       10.3461698913
Ag            2.0802750000        2.0802750000        0.0550808701
Ag            2.0802750000        2.0802750000        4.1690865446
Ag            2.0802750000        2.0802750000        8.3115149996

     Writing output data file ./surface.save/
     NEW-OLD atomic charge density approx. for the potential

[...]

     Self-consistent Calculation

[...]

     total energy              =   -3547.23091452 Ry
     estimated scf accuracy    <       0.00000003 Ry

     iteration # 10     ecut=    30.00 Ry     beta= 0.30
     Davidson diagonalization with overlap
     ethr =  1.33E-11,  avg # of iterations =  1.3

[...]

     End of self-consistent calculation

[...]

          k = 0.2500-0.5000 0.0000 (  7280 PWs)   bands (ev):

[...]

          k =-0.5000-0.5000 0.0000 (  7300 PWs)   bands (ev):

   -84.8396 -84.8396 -84.8396 -84.8396 -84.8253 -84.8252 -84.8252 -84.8252
   -84.5307 -84.5307 -84.5307 -84.5306 -48.3609 -48.3609 -48.3609 -48.3609
   -48.3414 -48.3414 -48.3414 -48.3414 -48.2867 -48.2867 -48.2867 -48.2866
   -48.2721 -48.2721 -48.2721 -48.2721 -48.2606 -48.2606 -48.2606 -48.2606
   -48.2497 -48.2497 -48.2497 -48.2497 -48.0368 -48.0368 -48.0368 -48.0368
   -47.9882 -47.9882 -47.9882 -47.9881 -47.9672 -47.9672 -47.9672 -47.9672
     1.0897   1.0897   1.0897   1.0897   1.4280   1.4280   1.4280   1.4280
     1.9341   1.9341   1.9341   1.9342   2.3530   2.3530   2.3530   2.3530
     2.3989   2.3989   2.3989   2.3990   2.4927   2.4928   2.4928   2.4928
     2.5361   2.5361   2.5361   2.5361   2.7328   2.7328   2.7328   2.7328
     2.9335   2.9335   2.9335   2.9335   3.1035   3.1036   3.1036   3.1037
     3.5646   3.5646   3.5646   3.5646   3.6453   3.6454   3.6454   3.6454
     3.9535   3.9536   3.9536   3.9536   4.0285   4.0285   4.0285   4.0286
     4.1066   4.1066   4.1067   4.1067   6.5304   6.5306   6.5306   6.5307
     6.6871   6.6872   6.6872   6.6873   7.3061   7.3062   7.3062   7.3063
     9.8517   9.8519   9.8519   9.8519  11.5013  11.5013  11.5013  11.5013
    13.3028  13.3028  13.3028  13.3028  14.5608  14.5611  14.5611  14.5612
    15.6610

     occupation numbers
     1.0000   1.0000   1.0000   1.0000   1.0000   1.0000   1.0000   1.0000
     1.0000   1.0000   1.0000   1.0000   1.0000   1.0000   1.0000   1.0000
     1.0000   1.0000   1.0000   1.0000   1.0000   1.0000   1.0000   1.0000
     1.0000   1.0000   1.0000   1.0000   1.0000   1.0000   1.0000   1.0000
     1.0000   1.0000   1.0000   1.0000   1.0000   1.0000   1.0000   1.0000
     1.0000   1.0000   1.0000   1.0000   1.0000   1.0000   1.0000   1.0000
     1.0000   1.0000   1.0000   1.0000   1.0000   1.0000   1.0000   1.0000
     1.0000   1.0000   1.0000   1.0000   1.0000   1.0000   1.0000   1.0000
     1.0000   1.0000   1.0000   1.0000   1.0000   1.0000   1.0000   1.0000
     1.0000   1.0000   1.0000   1.0000   1.0000   1.0000   1.0000   1.0000
     1.0000   1.0000   1.0000   1.0000   1.0000   1.0000   1.0000   1.0000
     1.0000   1.0000   1.0000   1.0000   1.0000   1.0000   1.0000   1.0000
     1.0000   1.0000   1.0000   1.0000   1.0000   1.0000   1.0000   1.0000
     1.0000   1.0000   1.0000   1.0000   1.0000   1.0000   1.0000   1.0000
     1.0000   1.0000   1.0000   1.0000   0.7124   0.7112   0.7112   0.7100
     0.0000   0.0000   0.0000   0.0000   0.0000   0.0000   0.0000   0.0000
     0.0000   0.0000   0.0000   0.0000   0.0000   0.0000   0.0000   0.0000
     0.0000

     the Fermi energy is     7.3223 ev

!    total energy              =   -3547.23091452 Ry
     estimated scf accuracy    <          1.8E-09 Ry
     smearing contrib. (-TS)   =      -0.00046707 Ry
     internal energy E=F+TS    =   -3547.23044745 Ry

     The total energy is F=E-TS. E is the sum of the following terms:
     one-electron contribution =  -17057.60372558 Ry
     hartree contribution      =    8561.17631609 Ry
     xc contribution           =    -347.44205342 Ry
     ewald contribution        =    5296.63901546 Ry

     convergence has been achieved in  10 iterations

     negative rho (up, down):  1.500E-03 0.000E+00

     Forces acting on atoms (cartesian axes, Ry/au):

     atom    1 type  1   force =     0.00000000    0.00000000    0.00022165
     atom    2 type  1   force =     0.00000000    0.00000000    0.00039314
     atom    3 type  1   force =     0.00000000    0.00000000    0.00049236
     atom    4 type  1   force =     0.00000000    0.00000000   -0.00049825
     atom    5 type  1   force =     0.00000000    0.00000000   -0.00039724
     atom    6 type  1   force =     0.00000000    0.00000000   -0.00021121
     atom    7 type  1   force =     0.00000000    0.00000000   -0.00049825
     atom    8 type  1   force =     0.00000000    0.00000000   -0.00039724
     atom    9 type  1   force =     0.00000000    0.00000000   -0.00021121
     atom   10 type  1   force =     0.00000000    0.00000000    0.00021053
     atom   11 type  1   force =     0.00000000    0.00000000    0.00040669
     atom   12 type  1   force =     0.00000000    0.00000000    0.00048903
     The non-local contrib.  to forces
     atom    1 type  1   force =     0.00000000    0.00000000   -0.21315609
     atom    2 type  1   force =     0.00000000    0.00000000   -0.02515304
     atom    3 type  1   force =     0.00000000    0.00000000   -0.00190639
     atom    4 type  1   force =     0.00000000    0.00000000    0.00201542
     atom    5 type  1   force =     0.00000000    0.00000000    0.02517644
     atom    6 type  1   force =     0.00000000    0.00000000    0.21321419
     atom    7 type  1   force =     0.00000000    0.00000000    0.00201542
     atom    8 type  1   force =     0.00000000    0.00000000    0.02517644
     atom    9 type  1   force =     0.00000000    0.00000000    0.21321419
     atom   10 type  1   force =     0.00000000    0.00000000   -0.21321720
     atom   11 type  1   force =     0.00000000    0.00000000   -0.02514857
     atom   12 type  1   force =     0.00000000    0.00000000   -0.00211994
     The ionic contribution  to forces
     atom    1 type  1   force =    -0.00000000   -0.00000000 -324.51920812
     atom    2 type  1   force =    -0.00000000   -0.00000000  -65.76579233
     atom    3 type  1   force =    -0.00000000   -0.00000000  197.22561921
     atom    4 type  1   force =    -0.00000000    0.00000000 -197.23164084
     atom    5 type  1   force =    -0.00000000    0.00000000   65.76482064
     atom    6 type  1   force =    -0.00000000   -0.00000000  324.52422308
     atom    7 type  1   force =     0.00000000   -0.00000000 -197.23164084
     atom    8 type  1   force =     0.00000000   -0.00000000   65.76482064
     atom    9 type  1   force =    -0.00000000   -0.00000000  324.52422308
     atom   10 type  1   force =     0.00000000    0.00000000 -324.52358857
     atom   11 type  1   force =    -0.00000000   -0.00000000  -65.76868357
     atom   12 type  1   force =    -0.00000000   -0.00000000  197.23684763
     The local contribution  to forces
     atom    1 type  1   force =     0.00000000    0.00000000  324.73116725
     atom    2 type  1   force =     0.00000000    0.00000000   65.79114328
     atom    3 type  1   force =    -0.00000000    0.00000000 -197.22321561
     atom    4 type  1   force =     0.00000000    0.00000000  197.22906445
     atom    5 type  1   force =     0.00000000   -0.00000000  -65.79028506
     atom    6 type  1   force =    -0.00000000    0.00000000 -324.73620213
     atom    7 type  1   force =     0.00000000    0.00000000  197.22906445
     atom    8 type  1   force =    -0.00000000    0.00000000  -65.79028506
     atom    9 type  1   force =     0.00000000    0.00000000 -324.73620213
     atom   10 type  1   force =     0.00000000    0.00000000  324.73559858
     atom   11 type  1   force =     0.00000000    0.00000000   65.79404364
     atom   12 type  1   force =     0.00000000    0.00000000 -197.23423668
     The core correction contribution to forces
     atom    1 type  1   force =    -0.00000000   -0.00000000    0.00140625
     atom    2 type  1   force =     0.00000000   -0.00000000    0.00018202
     atom    3 type  1   force =     0.00000000   -0.00000000    0.00013444
     atom    4 type  1   force =    -0.00000000   -0.00000000   -0.00013586
     atom    5 type  1   force =     0.00000000   -0.00000000   -0.00018246
     atom    6 type  1   force =     0.00000000   -0.00000000   -0.00140621
     atom    7 type  1   force =    -0.00000000   -0.00000000   -0.00013586
     atom    8 type  1   force =    -0.00000000   -0.00000000   -0.00018246
     atom    9 type  1   force =     0.00000000   -0.00000000   -0.00140621
     atom   10 type  1   force =    -0.00000000   -0.00000000    0.00140555
     atom   11 type  1   force =     0.00000000    0.00000000    0.00018206
     atom   12 type  1   force =     0.00000000    0.00000000    0.00013728
     The Hubbard contrib.    to forces
     atom    1 type  1   force =     0.00000000    0.00000000    0.00000000
     atom    2 type  1   force =     0.00000000    0.00000000    0.00000000
     atom    3 type  1   force =     0.00000000    0.00000000    0.00000000
     atom    4 type  1   force =     0.00000000    0.00000000    0.00000000
     atom    5 type  1   force =     0.00000000    0.00000000    0.00000000
     atom    6 type  1   force =     0.00000000    0.00000000    0.00000000
     atom    7 type  1   force =     0.00000000    0.00000000    0.00000000
     atom    8 type  1   force =     0.00000000    0.00000000    0.00000000
     atom    9 type  1   force =     0.00000000    0.00000000    0.00000000
     atom   10 type  1   force =     0.00000000    0.00000000    0.00000000
     atom   11 type  1   force =     0.00000000    0.00000000    0.00000000
     atom   12 type  1   force =     0.00000000    0.00000000    0.00000000
     The SCF correction term to forces
     atom    1 type  1   force =     0.00000000    0.00000000    0.00001991
     atom    2 type  1   force =     0.00000000    0.00000000    0.00002077
     atom    3 type  1   force =    -0.00000000    0.00000000   -0.00013174
     atom    4 type  1   force =    -0.00000000   -0.00000000    0.00020613
     atom    5 type  1   force =    -0.00000000   -0.00000000    0.00008075
     atom    6 type  1   force =     0.00000000   -0.00000000   -0.00003260
     atom    7 type  1   force =    -0.00000000   -0.00000000    0.00020613
     atom    8 type  1   force =    -0.00000000   -0.00000000    0.00008075
     atom    9 type  1   force =     0.00000000    0.00000000   -0.00003260
     atom   10 type  1   force =    -0.00000000   -0.00000000    0.00001971
     atom   11 type  1   force =     0.00000000   -0.00000000    0.00002068
     atom   12 type  1   force =     0.00000000   -0.00000000   -0.00013171

     Total force =     0.001340     Total SCF correction =     0.000369
     SCF correction compared to forces is large: reduce conv_thr to get better values

     Computing stress (Cartesian axis) and pressure

     negative rho (up, down):  1.500E-03 0.000E+00
          total   stress  (Ry/bohr**3)                   (kbar)     P=      -62.59
  -0.00045253   0.00000000   0.00000000          -66.57        0.00        0.00
   0.00000000  -0.00045253   0.00000000            0.00      -66.57        0.00
   0.00000000   0.00000000  -0.00037142            0.00        0.00      -54.64

     kinetic stress (kbar)  30030.67      0.00      0.00
                                0.00  30030.67      0.00
                                0.00      0.00  30082.69

     local   stress (kbar)-862740.93      0.00     -0.00
                                0.00-862740.93     -0.00
                               -0.00     -0.00 866783.43

     nonloc. stress (kbar)   3529.09      0.00      0.00
                                0.00   3529.09      0.00
                                0.00      0.00   3517.69

     hartree stress (kbar) 445462.19     -0.00      0.00
                               -0.00 445462.19      0.00
                                0.00      0.00-411373.34

     exc-cor stress (kbar)  -5415.96      0.00      0.00
                                0.00  -5415.96     -0.00
                                0.00     -0.00  -5419.58

     corecor stress (kbar)   -732.66      0.00     -0.00
                                0.00   -732.66      0.00
                               -0.00      0.00   -732.65

     ewald   stress (kbar) 389801.05     -0.00     -0.00
                               -0.00 389801.05     -0.00
                               -0.00     -0.00-482912.87

     hubbard stress (kbar)      0.00      0.00      0.00
                                0.00      0.00      0.00
                                0.00      0.00      0.00

     DFT-D   stress (kbar)      0.00      0.00      0.00
                                0.00      0.00      0.00
                                0.00      0.00      0.00

     XDM     stress (kbar)      0.00      0.00      0.00
                                0.00      0.00      0.00
                                0.00      0.00      0.00

     dft-nl  stress (kbar)      0.00      0.00      0.00
                                0.00      0.00      0.00
                                0.00      0.00      0.00

     TS-vdW  stress (kbar)      0.00      0.00      0.00
                                0.00      0.00      0.00
                                0.00      0.00      0.00

     Energy error            =      2.0E-05
     Gradient error          =      5.0E-04

     bfgs converged in  15 scf cycles and  14 bfgs steps
     (criteria: energy <  1.0E-04 Ry, force <  1.0E-03 Ry/Bohr)

     End of BFGS Geometry Optimization

     Final energy   =   -3547.2309145218 Ry

     File ./surface.bfgs deleted, as requested
Begin final coordinates

ATOMIC_POSITIONS (angstrom)
Ag            0.0000000000        0.0000000000        0.0552402550
Ag            0.0000000000        0.0000000000        4.1691705967
Ag            0.0000000000        0.0000000000        8.3112152486
Ag            0.0000000000        2.0802750000        2.0900204078
Ag            0.0000000000        2.0802750000        6.2322804436
Ag            0.0000000000        2.0802750000       10.3461698913
Ag            2.0802750000        0.0000000000        2.0900204078
Ag            2.0802750000        0.0000000000        6.2322804436
Ag            2.0802750000        0.0000000000       10.3461698913
Ag            2.0802750000        2.0802750000        0.0550808701
Ag            2.0802750000        2.0802750000        4.1690865446
Ag            2.0802750000        2.0802750000        8.3115149996
End final coordinates

     Writing output data file ./surface.save/

     General routines

     Parallel routines

   This run was terminated on:   3:58:44  10Dec2021

   JOB DONE.