     Program PWSCF v.6.7MaX starts on 10Dec2021 at  3:51:44

     R & G space division:  proc/nbgrp/npool/nimage =      16
     Reading input from au_surface.110.qe.7656383.1_1_3.in

     Current dimensions of program PWSCF are:
     Max number of different atomic species (ntypx) = 10
     Max number of k-points (npk) =  40000
     Max angular momentum in pseudopotentials (lmaxx) =  3

     bravais-lattice index     =            8
     lattice parameter (alat)  =       7.7068  a.u.
     unit-cell volume          =    1480.2607 (a.u.)^3
     number of atoms/cell      =            6
     number of atomic types    =            1
     number of electrons       =        66.00
     number of Kohn-Sham states=           40
     kinetic-energy cutoff     =      30.0000  Ry
     charge density cutoff     =     300.0000  Ry
     scf convergence threshold =      1.0E-06
     mixing beta               =       0.3000
     number of iterations used =            8  plain     mixing
     energy convergence thresh.=      1.0E-04
     force convergence thresh. =      1.0E-03
     Exchange-correlation= SLA  PW   PBE  PBE
                           (   1   4   3   4   0   0   0)
     nstep                     =           50

     celldm(1)=   7.706776  celldm(2)=   0.707107  celldm(3)=   4.573354
     celldm(4)=   0.000000  celldm(5)=   0.000000  celldm(6)=   0.000000

     crystal axes: (cart. coord. in units of alat)
               a(1) = (   1.000000   0.000000   0.000000 )
               a(2) = (   0.000000   0.707107   0.000000 )
               a(3) = (   0.000000   0.000000   4.573354 )

     reciprocal axes: (cart. coord. in units 2 pi/alat)
               b(1) = (  1.000000  0.000000  0.000000 )
               b(2) = (  0.000000  1.414213  0.000000 )
               b(3) = (  0.000000  0.000000  0.218658 )

     PseudoPot. # 1 for Au read from file:
     /expanse/lustre/projects/csd622/tpascal/nano110/qe/pseudo/au_pbe_v1.uspp.F.UPF
     MD5 check sum: 9d7f43293ad2c663164586bc4b293ffc
     Pseudo is Ultrasoft + core correction, Zval = 11.0
     Generated by new atomic code, or converted to UPF format
     Using radial grid of  985 points,  7 beta functions with:
                l(1) =   0
                l(2) =   0
                l(3) =   1
                l(4) =   1
                l(5) =   2
                l(6) =   2
                l(7) =   3
     Q(r) pseudized with  6 coefficients,  rinner =    1.900   1.900   1.900
                                                       1.900   1.900   1.900
                                                       1.900

     atomic species   valence    mass     pseudopotential
        Au            11.00   196.96655     Au( 1.00)

      4 Sym. Ops. (no inversion) found

                                    s                        frac. trans.

      isym =  1     identity

 cryst.   s( 1) = (     1          0          0      )
                  (     0          1          0      )
                  (     0          0          1      )

 cart.    s( 1) = (  1.0000000  0.0000000  0.0000000 )
                  (  0.0000000  1.0000000  0.0000000 )
                  (  0.0000000  0.0000000  1.0000000 )

      isym =  2     180 deg rotation - cart. axis [0,0,1]

[...]

      isym =  3     inv. 180 deg rotation - cart. axis [0,1,0]

[...]

      isym =  4     inv. 180 deg rotation - cart. axis [1,0,0]

 cryst.   s( 4) = (    -1          0          0      )
                  (     0          1          0      )
                  (     0          0          1      )

 cart.    s( 4) = ( -1.0000000  0.0000000  0.0000000 )
                  (  0.0000000  1.0000000  0.0000000 )
                  (  0.0000000  0.0000000  1.0000000 )

     point group C_2v (mm2)
     there are  4 classes
     the character table:

       E     C2    s_v   s_v'
A_1    1.00  1.00  1.00  1.00
A_2    1.00  1.00 -1.00 -1.00
B_1    1.00 -1.00  1.00 -1.00
B_2    1.00 -1.00 -1.00  1.00

     the symmetry operations in each class and the name of the first element:

     E        1
          identity
     C2       2
          180 deg rotation - cart. axis [0,0,1]
     s_v      4
          inv. 180 deg rotation - cart. axis [1,0,0]
     s_v'     3
          inv. 180 deg rotation - cart. axis [0,1,0]

   Cartesian axes

     site n.     atom                  positions (alat units)
         1           Au  tau(   1) = (   0.0000000   0.0000000   0.0000000  )
         2           Au  tau(   2) = (   0.0000000   0.0000000   0.7071072  )
         3           Au  tau(   3) = (   0.0000000   0.0000000   1.4142144  )
         4           Au  tau(   4) = (   0.5000000   0.3535536   0.3535536  )
         5           Au  tau(   5) = (   0.5000000   0.3535536   1.0606608  )
         6           Au  tau(   6) = (   0.5000000   0.3535536   1.7677680  )

   Crystallographic axes

     site n.     atom                  positions (cryst. coord.)
         1           Au  tau(   1) = (  0.0000000  0.0000000  0.0000000  )
         2           Au  tau(   2) = (  0.0000000  0.0000000  0.1546146  )
         3           Au  tau(   3) = (  0.0000000  0.0000000  0.3092292  )
         4           Au  tau(   4) = (  0.5000000  0.5000000  0.0773073  )
         5           Au  tau(   5) = (  0.5000000  0.5000000  0.2319219  )
         6           Au  tau(   6) = (  0.5000000  0.5000000  0.3865365  )

     number of k points=     9  Gaussian smearing, width (Ry)=  0.0030
                       cart. coord. in units 2pi/alat
        k(    1) = (   0.0000000   0.0000000   0.0000000), wk =   0.1250000
        k(    2) = (   0.0000000   0.3535532   0.0000000), wk =   0.2500000
        k(    3) = (   0.0000000  -0.7071063   0.0000000), wk =   0.1250000
        k(    4) = (   0.2500000   0.0000000   0.0000000), wk =   0.2500000
        k(    5) = (   0.2500000   0.3535532   0.0000000), wk =   0.5000000
        k(    6) = (   0.2500000  -0.7071063   0.0000000), wk =   0.2500000
        k(    7) = (  -0.5000000   0.0000000   0.0000000), wk =   0.1250000
        k(    8) = (  -0.5000000   0.3535532   0.0000000), wk =   0.2500000
        k(    9) = (  -0.5000000  -0.7071063   0.0000000), wk =   0.1250000

                       cryst. coord.
        k(    1) = (   0.0000000   0.0000000   0.0000000), wk =   0.1250000
        k(    2) = (   0.0000000   0.2500000   0.0000000), wk =   0.2500000
        k(    3) = (   0.0000000  -0.5000000   0.0000000), wk =   0.1250000
        k(    4) = (   0.2500000   0.0000000   0.0000000), wk =   0.2500000
        k(    5) = (   0.2500000   0.2500000   0.0000000), wk =   0.5000000
        k(    6) = (   0.2500000  -0.5000000   0.0000000), wk =   0.2500000
        k(    7) = (  -0.5000000   0.0000000   0.0000000), wk =   0.1250000
        k(    8) = (  -0.5000000   0.2500000   0.0000000), wk =   0.2500000
        k(    9) = (  -0.5000000  -0.5000000   0.0000000), wk =   0.1250000

     Check: negative core charge=   -0.000003

     Initial potential from superposition of free atoms

     starting charge   65.99927, renormalised to   66.00000

     negative rho (up, down):  3.901E-06 0.000E+00
     Starting wfcs are   54 randomized atomic wfcs

     Self-consistent Calculation

     iteration #  1     ecut=    30.00 Ry     beta= 0.30
     Davidson diagonalization with overlap
     ethr =  1.00E-02,  avg # of iterations =  2.6

     Threshold (ethr) on eigenvalues was too large:
     Diagonalizing with lowered threshold

     Davidson diagonalization with overlap
     ethr =  5.84E-04,  avg # of iterations =  1.4

     negative rho (up, down):  1.488E-06 0.000E+00

     total energy              =    -689.74795545 Ry
     estimated scf accuracy    <       0.41603412 Ry

[...]

     End of self-consistent calculation

          k = 0.0000 0.0000 0.0000 (  4117 PWs)   bands (ev):

    -4.7812  -3.3239  -2.2561  -1.8258  -1.8134  -1.6106  -1.1096  -0.5960
    -0.5085  -0.4854  -0.0243   0.0154   0.0366   0.0430   0.3929   0.4298
     0.5407   0.6191   0.9461   0.9599   1.3325   1.3721   1.4129   1.4985
     1.5974   1.9061   2.0507   2.1276   2.4747   2.5323   2.6429   2.6833
     2.8795   4.0316   6.1583   6.7616   8.3674   8.9120   9.2433  10.1437

     occupation numbers
     1.0000   1.0000   1.0000   1.0000   1.0000   1.0000   1.0000   1.0000
     1.0000   1.0000   1.0000   1.0000   1.0000   1.0000   1.0000   1.0000
     1.0000   1.0000   1.0000   1.0000   1.0000   1.0000   1.0000   1.0000
     1.0000   1.0000   1.0000   1.0000   1.0000   1.0000   1.0000   1.0000
     1.0000   1.0000   0.0000   0.0000   0.0000   0.0000   0.0000   0.0000

[...]

          k =-0.5000 0.0000 0.0000 (  4098 PWs)   bands (ev):

[...]

     the Fermi energy is     4.5354 ev

!    total energy              =    -689.80643388 Ry
     estimated scf accuracy    <       0.00000009 Ry
     smearing contrib. (-TS)   =      -0.00014217 Ry
     internal energy E=F+TS    =    -689.80629171 Ry

     The total energy is F=E-TS. E is the sum of the following terms:
     one-electron contribution =   -2151.46998225 Ry
     hartree contribution      =    1132.22328288 Ry
     xc contribution           =    -373.39018871 Ry
     ewald contribution        =     702.83059636 Ry

     convergence has been achieved in  11 iterations

[...]

     Forces acting on atoms (cartesian axes, Ry/au):

     atom    1 type  1   force =     0.00000000    0.00000000   -0.00859454
     atom    2 type  1   force =     0.00000000    0.00000000    0.00938635
     atom    3 type  1   force =     0.00000000    0.00000000    0.02882794
     atom    4 type  1   force =     0.00000000    0.00000000   -0.02885175
     atom    5 type  1   force =     0.00000000    0.00000000   -0.00929647
     atom    6 type  1   force =     0.00000000    0.00000000    0.00852846
     The non-local contrib.  to forces
     atom    1 type  1   force =     0.00000000    0.00000000    0.01288900
     atom    2 type  1   force =     0.00000000    0.00000000   -0.00464321
     atom    3 type  1   force =     0.00000000    0.00000000   -0.02433349
     atom    4 type  1   force =     0.00000000    0.00000000    0.02426818
     atom    5 type  1   force =     0.00000000    0.00000000    0.00461880
     atom    6 type  1   force =     0.00000000    0.00000000   -0.01296016
     The ionic contribution  to forces
     atom    1 type  1   force =    -0.00000000    0.00000000  -90.36765418
     atom    2 type  1   force =     0.00000000    0.00000000  -19.31465894
     atom    3 type  1   force =    -0.00000000    0.00000000   59.21389186
     atom    4 type  1   force =    -0.00000000   -0.00000000  -59.21389186
     atom    5 type  1   force =    -0.00000000   -0.00000000   19.31465894
     atom    6 type  1   force =    -0.00000000   -0.00000000   90.36765418
     The local contribution  to forces
     atom    1 type  1   force =    -0.00000000    0.00000000   90.32135190
     atom    2 type  1   force =     0.00000000   -0.00000000   19.32849321
     atom    3 type  1   force =     0.00000000   -0.00000000  -59.15075710
     atom    4 type  1   force =     0.00000000   -0.00000000   59.15097224
     atom    5 type  1   force =     0.00000000   -0.00000000  -19.32875412
     atom    6 type  1   force =     0.00000000   -0.00000000  -90.32099002
     The core correction contribution to forces
     atom    1 type  1   force =     0.00000000   -0.00000000    0.02538950
     atom    2 type  1   force =    -0.00000000   -0.00000000   -0.00008656
     atom    3 type  1   force =    -0.00000000    0.00000000   -0.00938566
     atom    4 type  1   force =     0.00000000    0.00000000    0.00942398
     atom    5 type  1   force =     0.00000000    0.00000000    0.00011453
     atom    6 type  1   force =     0.00000000    0.00000000   -0.02537269
     The Hubbard contrib.    to forces
     atom    1 type  1   force =     0.00000000    0.00000000    0.00000000
     atom    2 type  1   force =     0.00000000    0.00000000    0.00000000
     atom    3 type  1   force =     0.00000000    0.00000000    0.00000000
     atom    4 type  1   force =     0.00000000    0.00000000    0.00000000
     atom    5 type  1   force =     0.00000000    0.00000000    0.00000000
     atom    6 type  1   force =     0.00000000    0.00000000    0.00000000
     The SCF correction term to forces
     atom    1 type  1   force =    -0.00000000   -0.00000000   -0.00058419
     atom    2 type  1   force =    -0.00000000    0.00000000    0.00026842
     atom    3 type  1   force =     0.00000000    0.00000000   -0.00060111
     atom    4 type  1   force =    -0.00000000    0.00000000    0.00036229
     atom    5 type  1   force =     0.00000000   -0.00000000    0.00005195
     atom    6 type  1   force =    -0.00000000    0.00000000    0.00018372

     Total force =     0.044549     Total SCF correction =     0.000971

     Computing stress (Cartesian axis) and pressure

     negative rho (up, down):  9.554E-06 0.000E+00
          total   stress  (Ry/bohr**3)                   (kbar)     P=       14.47
   0.00018625   0.00000000   0.00000000           27.40        0.00        0.00
   0.00000000  -0.00010639   0.00000000            0.00      -15.65        0.00
   0.00000000   0.00000000   0.00021530            0.00        0.00       31.67

     kinetic stress (kbar)  10042.85      0.00      0.00
                                0.00   9929.89      0.00
                                0.00      0.00  10082.07

     local   stress (kbar)-204823.17     -0.00      0.00
                               -0.00-206858.34      0.00
                                0.00      0.00 230219.19

     nonloc. stress (kbar)  -6304.68      0.00      0.00
                                0.00  -6322.63      0.00
                                0.00      0.00  -6309.25

     hartree stress (kbar) 108282.13     -0.00     -0.00
                               -0.00 109016.09     -0.00
                               -0.00     -0.00-104780.34

     exc-cor stress (kbar)  25855.39     -0.00     -0.00
                               -0.00  25856.04     -0.00
                               -0.00     -0.00  25851.57

     corecor stress (kbar) -29849.63     -0.00     -0.00
                               -0.00 -29836.26      0.00
                               -0.00      0.00 -29853.28

     ewald   stress (kbar)  96824.51      0.00      0.00
                                0.00  98199.57      0.00
                                0.00      0.00-125178.30

     hubbard stress (kbar)      0.00      0.00      0.00
                                0.00      0.00      0.00
                                0.00      0.00      0.00

     DFT-D   stress (kbar)      0.00      0.00      0.00
                                0.00      0.00      0.00
                                0.00      0.00      0.00

     XDM     stress (kbar)      0.00      0.00      0.00
                                0.00      0.00      0.00
                                0.00      0.00      0.00

     dft-nl  stress (kbar)      0.00      0.00      0.00
                                0.00      0.00      0.00
                                0.00      0.00      0.00

     TS-vdW  stress (kbar)      0.00      0.00      0.00
                                0.00      0.00      0.00
                                0.00      0.00      0.00

     BFGS Geometry Optimization
     Energy error            =      0.0E+00
     Gradient error          =      2.9E-02

     number of scf cycles    =   1
     number of bfgs steps    =   0

     energy   new            =    -689.8064338810 Ry

     new trust radius        =       0.0288517451 bohr
     new conv_thr            =       0.0000010000 Ry

ATOMIC_POSITIONS (angstrom)
Au            0.0000000000        0.0000000000       -0.0045480347
Au            0.0000000000        0.0000000000        2.8887270436
Au            0.0000000000        0.0000000000        5.7827750871
Au            2.0391250000        1.4418800000        1.4266123140
Au            2.0391250000        1.4418800000        4.3207205219
Au            2.0391250000        1.4418800000        7.2139130681

     Writing output data file ./surface.save/
     NEW-OLD atomic charge density approx. for the potential

[...]

     Energy error            =      1.9E-03
     Gradient error          =      2.6E-02

[...]

     energy   old            =    -689.8064338810 Ry
     energy   new            =    -689.8083316271 Ry

     CASE: energy  _new < energy  _old

     WARNING: bfgs curvature condition failed, Theta= 0.882
     new trust radius        =       0.0317369196 bohr
     new conv_thr            =       0.0000001898 Ry

[...]

     Total force =     0.010014     Total SCF correction =     0.000469

[...]

     Total force =     0.006713     Total SCF correction =     0.000837
     SCF correction compared to forces is large: reduce conv_thr to get better values

[...]

     number of scf cycles    =  11
     number of bfgs steps    =  10

     energy   old            =    -689.8186463570 Ry
     energy   new            =    -689.8188310481 Ry

     CASE: energy  _new < energy  _old

     new trust radius        =       0.0099147386 bohr
     new conv_thr            =       0.0000000156 Ry

ATOMIC_POSITIONS (angstrom)
Au            0.0000000000        0.0000000000       -0.1332167863
Au            0.0000000000        0.0000000000        2.8887725011
Au            0.0000000000        0.0000000000        5.9760082469
Au            2.0391250000        1.4418800000        1.2335451412
Au            2.0391250000        1.4418800000        4.3204565029
Au            2.0391250000        1.4418800000        7.3426343943

     Writing output data file ./surface.save/
     NEW-OLD atomic charge density approx. for the potential

     Check: negative core charge=   -0.000003

[...]

     Self-consistent Calculation

[...]

     Threshold (ethr) on eigenvalues was too large:
     Diagonalizing with lowered threshold

     Davidson diagonalization with overlap
     ethr =  9.70E-09,  avg # of iterations =  6.1

[...]

     total energy              =    -689.81885341 Ry
     estimated scf accuracy    <       0.00000007 Ry

     iteration #  7     ecut=    30.00 Ry     beta= 0.30
     Davidson diagonalization with overlap
     ethr =  9.90E-11,  avg # of iterations =  2.0

[...]

     End of self-consistent calculation

[...]

          k = 0.2500-0.7071 0.0000 (  4104 PWs)   bands (ev):

[...]

          k =-0.5000-0.7071 0.0000 (  4136 PWs)   bands (ev):

    -1.8801  -1.8800  -1.1104  -1.1103  -0.7805  -0.7804  -0.4374  -0.4374
    -0.3128  -0.3126  -0.0596  -0.0595   0.2752   0.2753   0.6511   0.6511
     1.1171   1.1171   1.2834   1.2835   1.6488   1.6489   2.1188   2.1189
     2.6284   2.6285   2.6693   2.6694   2.7482   2.7483   5.0015   5.0015
     6.9808   6.9808   7.7339   7.7340   7.9556   7.9556   8.3741   8.3742

     occupation numbers
     1.0000   1.0000   1.0000   1.0000   1.0000   1.0000   1.0000   1.0000
     1.0000   1.0000   1.0000   1.0000   1.0000   1.0000   1.0000   1.0000
     1.0000   1.0000   1.0000   1.0000   1.0000   1.0000   1.0000   1.0000
     1.0000   1.0000   1.0000   1.0000   1.0000   1.0000   0.0000   0.0000
     0.0000   0.0000   0.0000   0.0000   0.0000   0.0000   0.0000   0.0000

     the Fermi energy is     4.6703 ev

!    total energy              =    -689.81885342 Ry
     estimated scf accuracy    <          9.0E-09 Ry
     smearing contrib. (-TS)   =      -0.00001727 Ry
     internal energy E=F+TS    =    -689.81883615 Ry

     The total energy is F=E-TS. E is the sum of the following terms:
     one-electron contribution =   -1972.52807898 Ry
     hartree contribution      =    1042.97423918 Ry
     xc contribution           =    -373.24588612 Ry
     ewald contribution        =     612.98088977 Ry

     convergence has been achieved in   7 iterations

     negative rho (up, down):  7.546E-06 0.000E+00

     Forces acting on atoms (cartesian axes, Ry/au):

     atom    1 type  1   force =     0.00000000    0.00000000   -0.00059533
     atom    2 type  1   force =     0.00000000    0.00000000    0.00080663
     atom    3 type  1   force =     0.00000000    0.00000000   -0.00055406
     atom    4 type  1   force =     0.00000000    0.00000000    0.00051286
     atom    5 type  1   force =     0.00000000    0.00000000   -0.00073849
     atom    6 type  1   force =     0.00000000    0.00000000    0.00056838
     The non-local contrib.  to forces
     atom    1 type  1   force =     0.00000000    0.00000000    0.00667817
     atom    2 type  1   force =     0.00000000    0.00000000   -0.01108208
     atom    3 type  1   force =     0.00000000    0.00000000   -0.03194101
     atom    4 type  1   force =     0.00000000    0.00000000    0.03190322
     atom    5 type  1   force =     0.00000000    0.00000000    0.01108626
     atom    6 type  1   force =     0.00000000    0.00000000   -0.00666754
     The ionic contribution  to forces
     atom    1 type  1   force =     0.00000000    0.00000000  -86.24001167
     atom    2 type  1   force =     0.00000000    0.00000000  -17.29837703
     atom    3 type  1   force =    -0.00000000    0.00000000   56.86230804
     atom    4 type  1   force =    -0.00000000   -0.00000000  -56.86215671
     atom    5 type  1   force =    -0.00000000   -0.00000000   17.30041630
     atom    6 type  1   force =     0.00000000   -0.00000000   86.23782108
     The local contribution  to forces
     atom    1 type  1   force =     0.00000000    0.00000000   86.20736502
     atom    2 type  1   force =     0.00000000    0.00000000   17.30787530
     atom    3 type  1   force =    -0.00000000    0.00000000  -56.82864728
     atom    4 type  1   force =     0.00000000   -0.00000000   56.82856380
     atom    5 type  1   force =     0.00000000   -0.00000000  -17.30986958
     atom    6 type  1   force =     0.00000000   -0.00000000  -86.20506607
     The core correction contribution to forces
     atom    1 type  1   force =    -0.00000000    0.00000000    0.02544198
     atom    2 type  1   force =    -0.00000000    0.00000000    0.00231967
     atom    3 type  1   force =     0.00000000    0.00000000   -0.00240929
     atom    4 type  1   force =     0.00000000    0.00000000    0.00242181
     atom    5 type  1   force =     0.00000000    0.00000000   -0.00234876
     atom    6 type  1   force =    -0.00000000    0.00000000   -0.02548413
     The Hubbard contrib.    to forces
     atom    1 type  1   force =     0.00000000    0.00000000    0.00000000
     atom    2 type  1   force =     0.00000000    0.00000000    0.00000000
     atom    3 type  1   force =     0.00000000    0.00000000    0.00000000
     atom    4 type  1   force =     0.00000000    0.00000000    0.00000000
     atom    5 type  1   force =     0.00000000    0.00000000    0.00000000
     atom    6 type  1   force =     0.00000000    0.00000000    0.00000000
     The SCF correction term to forces
     atom    1 type  1   force =     0.00000000    0.00000000   -0.00008141
     atom    2 type  1   force =    -0.00000000    0.00000000    0.00005819
     atom    3 type  1   force =     0.00000000    0.00000000    0.00012290
     atom    4 type  1   force =    -0.00000000   -0.00000000   -0.00023185
     atom    5 type  1   force =     0.00000000    0.00000000   -0.00003530
     atom    6 type  1   force =     0.00000000    0.00000000   -0.00004754

     Total force =     0.001563     Total SCF correction =     0.000287
     SCF correction compared to forces is large: reduce conv_thr to get better values

     Computing stress (Cartesian axis) and pressure

     negative rho (up, down):  7.546E-06 0.000E+00
          total   stress  (Ry/bohr**3)                   (kbar)     P=       -8.68
   0.00005989   0.00000000   0.00000000            8.81        0.00        0.00
   0.00000000  -0.00023266   0.00000000            0.00      -34.23        0.00
   0.00000000   0.00000000  -0.00000421            0.00        0.00       -0.62

     kinetic stress (kbar)  10032.23      0.00      0.00
                                0.00   9910.56      0.00
                                0.00      0.00  10089.13

     local   stress (kbar)-186848.66     -0.00      0.00
                               -0.00-189054.81     -0.00
                                0.00     -0.00 212224.33

     nonloc. stress (kbar)  -6318.67      0.00      0.00
                                0.00  -6337.51      0.00
                                0.00      0.00  -6324.64

     hartree stress (kbar)  99377.14      0.00      0.00
                                0.00 100150.97     -0.00
                                0.00     -0.00 -95879.60

     exc-cor stress (kbar)  25859.03      0.00     -0.00
                                0.00  25860.05      0.00
                               -0.00      0.00  25853.76

     corecor stress (kbar) -29848.18      0.00      0.00
                                0.00 -29834.47      0.00
                                0.00      0.00 -29853.40

     ewald   stress (kbar)  87755.93      0.00      0.00
                                0.00  89270.98     -0.00
                                0.00     -0.00-116110.20

     hubbard stress (kbar)      0.00      0.00      0.00
                                0.00      0.00      0.00
                                0.00      0.00      0.00

     DFT-D   stress (kbar)      0.00      0.00      0.00
                                0.00      0.00      0.00
                                0.00      0.00      0.00

     XDM     stress (kbar)      0.00      0.00      0.00
                                0.00      0.00      0.00
                                0.00      0.00      0.00

     dft-nl  stress (kbar)      0.00      0.00      0.00
                                0.00      0.00      0.00
                                0.00      0.00      0.00

     TS-vdW  stress (kbar)      0.00      0.00      0.00
                                0.00      0.00      0.00
                                0.00      0.00      0.00

     Energy error            =      2.2E-05
     Gradient error          =      8.1E-04

     bfgs converged in  12 scf cycles and  11 bfgs steps
     (criteria: energy <  1.0E-04 Ry, force <  1.0E-03 Ry/Bohr)

     End of BFGS Geometry Optimization

     Final energy   =    -689.8188534173 Ry

     File ./surface.bfgs deleted, as requested
Begin final coordinates

ATOMIC_POSITIONS (angstrom)
Au            0.0000000000        0.0000000000       -0.1332167863
Au            0.0000000000        0.0000000000        2.8887725011
Au            0.0000000000        0.0000000000        5.9760082469
Au            2.0391250000        1.4418800000        1.2335451412
Au            2.0391250000        1.4418800000        4.3204565029
Au            2.0391250000        1.4418800000        7.3426343943
End final coordinates

     Writing output data file ./surface.save/

     General routines

     Parallel routines

   This run was terminated on:   3:52:57  10Dec2021

   JOB DONE.