     Program PWSCF v.6.7MaX starts on  6Dec2021 at  0:24:47

     R & G space division:  proc/nbgrp/npool/nimage =      32
     Reading input from pt_surface.100.k.qe.7_7_1.in

     Current dimensions of program PWSCF are:
     Max number of different atomic species (ntypx) = 10
     Max number of k-points (npk) =  40000
     Max angular momentum in pseudopotentials (lmaxx) =  3

     Found symmetry operation: I + (  0.2500  0.2500  0.0000)
     This is a supercell, fractional translations are disabled

     bravais-lattice index     =            8
     lattice parameter (alat)  =      15.0300  a.u.
     unit-cell volume          =    5966.5648 (a.u.)^3
     number of atoms/cell      =           16
     number of atomic types    =            1
     number of electrons       =       256.00
     number of Kohn-Sham states=          154
     kinetic-energy cutoff     =      30.0000  Ry
     charge density cutoff     =     300.0000  Ry
     scf convergence threshold =      1.0E-06
     mixing beta               =       0.3000
     number of iterations used =            8  plain     mixing
     energy convergence thresh.=      1.0E-04
     force convergence thresh. =      1.0E-03
     Exchange-correlation=  SLA  PW   PBX  PBC
                           (   1   4   3   4   0   0   0)
     nstep                     =           50

     celldm(1)=  15.030012  celldm(2)=   1.000000  celldm(3)=   1.757302
     celldm(4)=   0.000000  celldm(5)=   0.000000  celldm(6)=   0.000000

     crystal axes: (cart. coord. in units of alat)
               a(1) = (   1.000000   0.000000   0.000000 )
               a(2) = (   0.000000   1.000000   0.000000 )
               a(3) = (   0.000000   0.000000   1.757302 )

     reciprocal axes: (cart. coord. in units 2 pi/alat)
               b(1) = (  1.000000  0.000000  0.000000 )
               b(2) = (  0.000000  1.000000  0.000000 )
               b(3) = (  0.000000  0.000000  0.569054 )

     PseudoPot. # 1 for Pt read from file:
     /expanse/lustre/projects/csd622/tpascal/nano110/qe/pseudo/pt_pbe_v1.4.uspp.F.UPF
     MD5 check sum: f09d6de1a584b5a045c4fc126da2d0c4
     Pseudo is Ultrasoft + core correction, Zval = 16.0
     Generated by new atomic code, or converted to UPF format
     Using radial grid of  985 points,  6 beta functions with:
                l(1) =   0
                l(2) =   0
                l(3) =   1
                l(4) =   1
                l(5) =   2
                l(6) =   2
     Q(r) pseudized with  8 coefficients,  rinner =    1.300   1.300   1.300
                                                       1.300   1.300

     atomic species   valence    mass     pseudopotential
        Pt            16.00   195.08400     Pt( 1.00)

      8 Sym. Ops. (no inversion) found

                                    s                        frac. trans.

      isym =  1     identity

 cryst.   s( 1) = (     1          0          0      )
                  (     0          1          0      )
                  (     0          0          1      )

 cart.    s( 1) = (  1.0000000  0.0000000  0.0000000 )
                  (  0.0000000  1.0000000  0.0000000 )
                  (  0.0000000  0.0000000  1.0000000 )

      isym =  2     180 deg rotation - cart. axis [0,0,1]

[...]

      isym =  4      90 deg rotation - cart. axis [0,0,1]

[...]

      isym =  5     inv. 180 deg rotation - cart. axis [0,1,0]

[...]

      isym =  8     inv. 180 deg rotation - cart. axis [1,-1,0]

 cryst.   s( 8) = (     0          1          0      )
                  (     1          0          0      )
                  (     0          0          1      )

 cart.    s( 8) = (  0.0000000  1.0000000  0.0000000 )
                  (  1.0000000  0.0000000  0.0000000 )
                  (  0.0000000  0.0000000  1.0000000 )

     point group C_4v (4mm)
     there are  5 classes
     the character table:

       E     2C4   C2    2s_v  2s_d
A_1    1.00  1.00  1.00  1.00  1.00
A_2    1.00  1.00  1.00 -1.00 -1.00
B_1    1.00 -1.00  1.00  1.00 -1.00
B_2    1.00 -1.00  1.00 -1.00  1.00
E      2.00  0.00 -2.00  0.00  0.00

     the symmetry operations in each class and the name of the first element:

     E        1
          identity
     2C4      3    4
           90 deg rotation - cart. axis [0,0,-1]
     C2       2
          180 deg rotation - cart. axis [0,0,1]
     2s_v     5    6
          inv. 180 deg rotation - cart. axis [0,1,0]
     2s_d     7    8
          inv. 180 deg rotation - cart. axis [1,1,0]

   Cartesian axes

     site n.     atom                  positions (alat units)
         1           Pt  tau(   1) = (   0.0000000   0.0000000   0.0000000  )
         2           Pt  tau(   2) = (   0.5000000   0.2500000   0.2500000  )
         3           Pt  tau(   3) = (   0.2500000   0.0000000   0.2500000  )
         4           Pt  tau(   4) = (   0.2500000   0.2500000   0.0000000  )
         5           Pt  tau(   5) = (   0.0000000   0.5000000   0.0000000  )
         6           Pt  tau(   6) = (   0.5000000   0.7500000   0.2500000  )
         7           Pt  tau(   7) = (   0.2500000   0.5000000   0.2500000  )
         8           Pt  tau(   8) = (   0.2500000   0.7500000   0.0000000  )
         9           Pt  tau(   9) = (   0.5000000   0.0000000   0.0000000  )
        10           Pt  tau(  10) = (   1.0000000   0.2500000   0.2500000  )
        11           Pt  tau(  11) = (   0.7500000   0.0000000   0.2500000  )
        12           Pt  tau(  12) = (   0.7500000   0.2500000   0.0000000  )
        13           Pt  tau(  13) = (   0.5000000   0.5000000   0.0000000  )
        14           Pt  tau(  14) = (   1.0000000   0.7500000   0.2500000  )
        15           Pt  tau(  15) = (   0.7500000   0.5000000   0.2500000  )
        16           Pt  tau(  16) = (   0.7500000   0.7500000   0.0000000  )

   Crystallographic axes

     site n.     atom                  positions (cryst. coord.)
         1           Pt  tau(   1) = (  0.0000000  0.0000000  0.0000000  )
         2           Pt  tau(   2) = (  0.5000000  0.2500000  0.1422636  )
         3           Pt  tau(   3) = (  0.2500000  0.0000000  0.1422636  )
         4           Pt  tau(   4) = (  0.2500000  0.2500000  0.0000000  )
         5           Pt  tau(   5) = (  0.0000000  0.5000000  0.0000000  )
         6           Pt  tau(   6) = (  0.5000000  0.7500000  0.1422636  )
         7           Pt  tau(   7) = (  0.2500000  0.5000000  0.1422636  )
         8           Pt  tau(   8) = (  0.2500000  0.7500000  0.0000000  )
         9           Pt  tau(   9) = (  0.5000000  0.0000000  0.0000000  )
        10           Pt  tau(  10) = (  1.0000000  0.2500000  0.1422636  )
        11           Pt  tau(  11) = (  0.7500000  0.0000000  0.1422636  )
        12           Pt  tau(  12) = (  0.7500000  0.2500000  0.0000000  )
        13           Pt  tau(  13) = (  0.5000000  0.5000000  0.0000000  )
        14           Pt  tau(  14) = (  1.0000000  0.7500000  0.1422636  )
        15           Pt  tau(  15) = (  0.7500000  0.5000000  0.1422636  )
        16           Pt  tau(  16) = (  0.7500000  0.7500000  0.0000000  )

     number of k points=    10  Gaussian smearing, width (Ry)=  0.0030
                       cart. coord. in units 2pi/alat
        k(    1) = (   0.0000000   0.0000000   0.0000000), wk =   0.0408163
        k(    2) = (   0.0000000   0.1428571   0.0000000), wk =   0.1632653
        k(    3) = (   0.0000000   0.2857143   0.0000000), wk =   0.1632653
        k(    4) = (   0.0000000   0.4285714   0.0000000), wk =   0.1632653
        k(    5) = (   0.1428571   0.1428571   0.0000000), wk =   0.1632653
        k(    6) = (   0.1428571   0.2857143   0.0000000), wk =   0.3265306
        k(    7) = (   0.1428571   0.4285714   0.0000000), wk =   0.3265306
        k(    8) = (   0.2857143   0.2857143   0.0000000), wk =   0.1632653
        k(    9) = (   0.2857143   0.4285714   0.0000000), wk =   0.3265306
        k(   10) = (   0.4285714   0.4285714   0.0000000), wk =   0.1632653

                       cryst. coord.
        k(    1) = (   0.0000000   0.0000000   0.0000000), wk =   0.0408163
        k(    2) = (   0.0000000   0.1428571   0.0000000), wk =   0.1632653
        k(    3) = (   0.0000000   0.2857143   0.0000000), wk =   0.1632653
        k(    4) = (   0.0000000   0.4285714   0.0000000), wk =   0.1632653
        k(    5) = (   0.1428571   0.1428571   0.0000000), wk =   0.1632653
        k(    6) = (   0.1428571   0.2857143   0.0000000), wk =   0.3265306
        k(    7) = (   0.1428571   0.4285714   0.0000000), wk =   0.3265306
        k(    8) = (   0.2857143   0.2857143   0.0000000), wk =   0.1632653
        k(    9) = (   0.2857143   0.4285714   0.0000000), wk =   0.3265306
        k(   10) = (   0.4285714   0.4285714   0.0000000), wk =   0.1632653

     Initial potential from superposition of free atoms

     starting charge  247.99982, renormalised to  256.00000

     negative rho (up, down):  3.024E+00 0.000E+00
     Starting wfcs are  192 randomized atomic wfcs

     Self-consistent Calculation

     iteration #  1     ecut=    30.00 Ry     beta= 0.30
     Davidson diagonalization with overlap
     ethr =  1.00E-02,  avg # of iterations =  7.5

     negative rho (up, down):  2.871E+00 0.000E+00

     total energy              =   -3363.40899379 Ry
     estimated scf accuracy    <      30.50938351 Ry

[...]

     iteration #  9     ecut=    30.00 Ry     beta= 0.30
     Davidson diagonalization with overlap
     c_bands:  1 eigenvalues not converged
     ethr =  8.12E-07,  avg # of iterations =  3.7

[...]

     End of self-consistent calculation

          k = 0.0000 0.0000 0.0000 ( 16575 PWs)   bands (ev):

   -50.3140 -50.3140 -50.2983 -50.2983 -50.2983 -50.2983 -50.2100 -50.2100
   -50.2100 -50.2100 -50.1998 -50.1998 -50.1959 -50.1959 -50.1958 -50.1958
   -50.1683 -50.1683 -50.1682 -50.1682 -50.1148 -50.1148 -50.1147 -50.1147
   -50.1050 -50.1050 -50.0974 -50.0502 -50.0502 -50.0502 -50.0502 -50.0289
   -50.0289 -50.0090 -50.0090 -50.0090 -50.0090 -49.9626 -49.9626 -49.9608
   -49.9607 -49.9607 -49.9606 -49.9198 -49.9197 -49.9197 -49.9197 -49.9043
    -5.5486  -3.5128  -3.2546  -3.2546  -3.2546  -3.2546  -3.2271  -3.2270
    -3.2270  -3.2270  -3.1076  -2.9811  -2.9811  -2.4701  -2.4701  -1.9773
    -1.9773  -1.9773  -1.9773  -1.7698  -1.7698  -1.7697  -1.7697  -1.7622
    -1.2113  -1.2113  -1.2113  -1.2113  -1.1050  -1.1050  -1.1050  -1.1050
    -0.5916  -0.5916  -0.5916  -0.5916  -0.4648  -0.4648  -0.4648  -0.4648
    -0.2747  -0.2747  -0.2747  -0.2746  -0.2680  -0.2679  -0.2679  -0.2679
    -0.0728  -0.0728   0.2050   0.4449   0.4449   0.4449   0.4449   0.5466
     0.5466   0.5466   0.5467   0.6857   0.6857   0.6857   0.6857   0.7737
     0.7737   0.9264   1.3415   1.3969   1.3970   1.3970   1.3970   1.4427
     1.4427   1.6889   1.6889   1.6890   1.6890   1.7308   1.7308   1.7308
     1.7308   1.9563   1.9563   2.1092   2.8974   2.8974   3.8036   3.8036
     3.8036   3.8036   3.9205   3.9205   3.9205   3.9205   4.0107   6.2223
     6.2223   6.2223   6.2223   6.5085   6.5085   7.4723   7.8250   8.0058
     8.0059   8.0059

     occupation numbers
[...]

[...]

     End of self-consistent calculation

[...]

          k = 0.4286 0.4286 0.0000 ( 16550 PWs)   bands (ev):

   -50.4050 -50.4050 -50.4022 -50.4022 -50.4019 -50.4019 -50.3979 -50.3979
   -50.3466 -50.3240 -50.3240 -50.3084 -50.3018 -50.2845 -50.2845 -50.2625
   -50.2444 -50.2444 -50.2369 -50.2369 -50.2240 -50.2240 -50.2137 -50.2137
   -50.1982 -50.1950 -50.1950 -50.1858 -50.1228 -50.1209 -50.1209 -50.1180
   -50.1139 -50.1139 -50.1131 -50.1093 -50.0569 -50.0569 -50.0492 -50.0492
   -50.0455 -50.0455 -50.0377 -50.0376 -49.9877 -49.9830 -49.9830 -49.9794
    -4.8469  -4.5546  -4.5546  -4.3381  -3.3553  -3.3147  -3.2907  -3.2907
    -2.8906  -2.8906  -2.8726  -2.8725  -2.8030  -2.8030  -2.7506  -2.7506
    -2.4397  -2.4397  -2.3780  -2.2495  -2.2494  -2.2087  -2.2087  -2.0854
    -2.0853  -2.0093  -2.0093  -1.8735  -1.1641  -1.0324  -1.0100  -1.0099
    -0.9736  -0.9735  -0.8669  -0.8119  -0.4962  -0.4962  -0.4059  -0.4008
    -0.4007  -0.3488  -0.2723  -0.2723  -0.1518  -0.1517  -0.0528  -0.0444
    -0.0444  -0.0227   0.1144   0.1144   0.2056   0.2056   0.2381   0.2874
     0.7657   0.7657   0.8834   0.9195   0.9196   0.9249   0.9249   0.9441
     0.9441   1.0030   1.0030   1.0347   1.4125   1.4125   1.4266   1.4266
     1.5432   1.5432   1.5623   1.6011   1.6012   1.6473   1.6473   1.6788
     2.0999   2.1587   2.1587   2.1619   2.1784   2.4771   2.4771   2.7246
     4.2518   4.2519   4.9106   4.9106   5.3211   5.3211   6.0313   6.0313
     6.0970   6.5597   6.5598   6.9252   7.1093   7.1093   7.4460   7.4460
     8.2716   8.2716

     occupation numbers
     1.0000   1.0000   1.0000   1.0000   1.0000   1.0000   1.0000   1.0000
     1.0000   1.0000   1.0000   1.0000   1.0000   1.0000   1.0000   1.0000
     1.0000   1.0000   1.0000   1.0000   1.0000   1.0000   1.0000   1.0000
     1.0000   1.0000   1.0000   1.0000   1.0000   1.0000   1.0000   1.0000
     1.0000   1.0000   1.0000   1.0000   1.0000   1.0000   1.0000   1.0000
     1.0000   1.0000   1.0000   1.0000   1.0000   1.0000   1.0000   1.0000
     1.0000   1.0000   1.0000   1.0000   1.0000   1.0000   1.0000   1.0000
     1.0000   1.0000   1.0000   1.0000   1.0000   1.0000   1.0000   1.0000
     1.0000   1.0000   1.0000   1.0000   1.0000   1.0000   1.0000   1.0000
     1.0000   1.0000   1.0000   1.0000   1.0000   1.0000   1.0000   1.0000
     1.0000   1.0000   1.0000   1.0000   1.0000   1.0000   1.0000   1.0000
     1.0000   1.0000   1.0000   1.0000   1.0000   1.0000   1.0000   1.0000
     1.0000   1.0000   1.0000   1.0000   1.0000   1.0000   1.0000   1.0000
     1.0000   1.0000   1.0000   1.0000   1.0000   1.0000   1.0000   1.0000
     1.0000   1.0000   1.0000   1.0000   1.0000   1.0000   1.0000   1.0000
     1.0000   1.0000   1.0000   1.0000   1.0000   1.0000   1.0000   1.0000
     0.0000   0.0000   0.0000   0.0000   0.0000   0.0000   0.0000   0.0000
     0.0000   0.0000   0.0000   0.0000   0.0000   0.0000   0.0000   0.0000
     0.0000   0.0000   0.0000   0.0000   0.0000   0.0000   0.0000   0.0000
     0.0000   0.0000

     the Fermi energy is     1.9492 ev

!    total energy              =   -3369.97205017 Ry
     estimated scf accuracy    <          9.6E-09 Ry
     smearing contrib. (-TS)   =      -0.00269305 Ry
     internal energy E=F+TS    =   -3369.96935713 Ry

     The total energy is F=E-TS. E is the sum of the following terms:
     one-electron contribution =   -9351.80847388 Ry
     hartree contribution      =    4721.17379206 Ry
     xc contribution           =    -908.43943269 Ry
     ewald contribution        =    2169.10475738 Ry

     convergence has been achieved in   9 iterations

     negative rho (up, down):  2.836E+00 0.000E+00

     Forces acting on atoms (cartesian axes, Ry/au):

     atom    1 type  1   force =     0.00000000    0.00000000   -0.00000250
     atom    2 type  1   force =     0.00000000   -0.00000530   -0.00000038
     atom    3 type  1   force =     0.00000321    0.00000000    0.00000379
     atom    4 type  1   force =     0.00000080    0.00000080   -0.00000410
     atom    5 type  1   force =     0.00000000    0.00000000    0.00000586
     atom    6 type  1   force =     0.00000000    0.00000530   -0.00000038
     atom    7 type  1   force =    -0.00000530    0.00000000   -0.00000038
     atom    8 type  1   force =     0.00000080   -0.00000080   -0.00000410
     atom    9 type  1   force =     0.00000000    0.00000000    0.00000586
     atom   10 type  1   force =     0.00000000    0.00000321    0.00000379
     atom   11 type  1   force =    -0.00000321    0.00000000    0.00000379
     atom   12 type  1   force =    -0.00000080    0.00000080   -0.00000410
     atom   13 type  1   force =     0.00000000    0.00000000   -0.00000649
     atom   14 type  1   force =     0.00000000   -0.00000321    0.00000379
     atom   15 type  1   force =     0.00000530    0.00000000   -0.00000038
     atom   16 type  1   force =    -0.00000080   -0.00000080   -0.00000410
     The non-local contrib.  to forces
     atom    1 type  1   force =     0.00000000    0.00000000   -0.08686986
     atom    2 type  1   force =     0.00000000   -0.00001053    0.08687118
     atom    3 type  1   force =     0.00001034    0.00000000    0.08687232
     atom    4 type  1   force =    -0.00000041   -0.00000041   -0.08686194
     atom    5 type  1   force =     0.00000000    0.00000000   -0.08686345
     atom    6 type  1   force =     0.00000000    0.00001053    0.08687118
     atom    7 type  1   force =    -0.00001053    0.00000000    0.08687118
     atom    8 type  1   force =    -0.00000041    0.00000041   -0.08686194
     atom    9 type  1   force =     0.00000000    0.00000000   -0.08686345
     atom   10 type  1   force =    -0.00000000    0.00001034    0.08687232
     atom   11 type  1   force =    -0.00001034   -0.00000000    0.08687232
     atom   12 type  1   force =     0.00000041   -0.00000041   -0.08686194
     atom   13 type  1   force =     0.00000000    0.00000000   -0.08686890
     atom   14 type  1   force =     0.00000000   -0.00001034    0.08687232
     atom   15 type  1   force =     0.00001053    0.00000000    0.08687118
     atom   16 type  1   force =     0.00000041    0.00000041   -0.08686194
     The ionic contribution  to forces
     atom    1 type  1   force =     0.00000000    0.00000000  -77.65354837
     atom    2 type  1   force =     0.00000000   -0.00134355   77.65224210
     atom    3 type  1   force =     0.00145826    0.00000000   77.65139915
     atom    4 type  1   force =    -0.00006885   -0.00006885  -77.65164654
     atom    5 type  1   force =     0.00000000    0.00000000  -77.65108160
     atom    6 type  1   force =    -0.00000000    0.00134355   77.65224210
     atom    7 type  1   force =    -0.00134355    0.00000000   77.65224210
     atom    8 type  1   force =    -0.00006885    0.00006885  -77.65164654
     atom    9 type  1   force =     0.00000000    0.00000000  -77.65108160
     atom   10 type  1   force =    -0.00000000    0.00145826   77.65139915
     atom   11 type  1   force =    -0.00145826    0.00000000   77.65139915
     atom   12 type  1   force =     0.00006885   -0.00006885  -77.65164654
     atom   13 type  1   force =    -0.00000000    0.00000000  -77.65226727
     atom   14 type  1   force =    -0.00000000   -0.00145826   77.65139915
     atom   15 type  1   force =     0.00134355   -0.00000000   77.65224210
     atom   16 type  1   force =     0.00006885    0.00006885  -77.65164654
     The local contribution  to forces
     atom    1 type  1   force =    -0.00000000   -0.00000000   77.71231031
     atom    2 type  1   force =     0.00000000    0.00136021  -77.71105385
     atom    3 type  1   force =    -0.00143743   -0.00000000  -77.71026368
     atom    4 type  1   force =     0.00004621    0.00004621   77.71042248
     atom    5 type  1   force =    -0.00000000    0.00000000   77.70989647
     atom    6 type  1   force =     0.00000000   -0.00136021  -77.71105385
     atom    7 type  1   force =     0.00136021    0.00000000  -77.71105385
     atom    8 type  1   force =     0.00004621   -0.00004621   77.71042248
     atom    9 type  1   force =     0.00000000   -0.00000000   77.70989647
     atom   10 type  1   force =     0.00000000   -0.00143743  -77.71026368
     atom   11 type  1   force =     0.00143743   -0.00000000  -77.71026368
     atom   12 type  1   force =    -0.00004621    0.00004621   77.71042248
     atom   13 type  1   force =     0.00000000    0.00000000   77.71112592
     atom   14 type  1   force =     0.00000000    0.00143743  -77.71026368
     atom   15 type  1   force =    -0.00136021    0.00000000  -77.71105385
     atom   16 type  1   force =    -0.00004621   -0.00004621   77.71042248
     The core correction contribution to forces
     atom    1 type  1   force =     0.00000000    0.00000000    0.02804158
     atom    2 type  1   force =    -0.00000000    0.00000078   -0.02803848
     atom    3 type  1   force =    -0.00000116    0.00000000   -0.02803809
     atom    4 type  1   force =    -0.00000005   -0.00000005    0.02804215
     atom    5 type  1   force =     0.00000000   -0.00000000    0.02804015
     atom    6 type  1   force =     0.00000000   -0.00000078   -0.02803848
     atom    7 type  1   force =     0.00000078   -0.00000000   -0.02803848
     atom    8 type  1   force =    -0.00000005    0.00000005    0.02804215
     atom    9 type  1   force =    -0.00000000    0.00000000    0.02804015
     atom   10 type  1   force =     0.00000000   -0.00000116   -0.02803809
     atom   11 type  1   force =     0.00000116    0.00000000   -0.02803809
     atom   12 type  1   force =     0.00000005   -0.00000005    0.02804215
     atom   13 type  1   force =     0.00000000    0.00000000    0.02804038
     atom   14 type  1   force =     0.00000000    0.00000116   -0.02803809
     atom   15 type  1   force =    -0.00000078    0.00000000   -0.02803848
     atom   16 type  1   force =     0.00000005    0.00000005    0.02804215
     The Hubbard contrib.    to forces
     atom    1 type  1   force =     0.00000000    0.00000000    0.00000000
     atom    2 type  1   force =     0.00000000    0.00000000    0.00000000
     atom    3 type  1   force =     0.00000000    0.00000000    0.00000000
     atom    4 type  1   force =     0.00000000    0.00000000    0.00000000
     atom    5 type  1   force =     0.00000000    0.00000000    0.00000000
     atom    6 type  1   force =     0.00000000    0.00000000    0.00000000
     atom    7 type  1   force =     0.00000000    0.00000000    0.00000000
     atom    8 type  1   force =     0.00000000    0.00000000    0.00000000
     atom    9 type  1   force =     0.00000000    0.00000000    0.00000000
     atom   10 type  1   force =     0.00000000    0.00000000    0.00000000
     atom   11 type  1   force =     0.00000000    0.00000000    0.00000000
     atom   12 type  1   force =     0.00000000    0.00000000    0.00000000
     atom   13 type  1   force =     0.00000000    0.00000000    0.00000000
     atom   14 type  1   force =     0.00000000    0.00000000    0.00000000
     atom   15 type  1   force =     0.00000000    0.00000000    0.00000000
     atom   16 type  1   force =     0.00000000    0.00000000    0.00000000
     The SCF correction term to forces
     atom    1 type  1   force =    -0.00000000    0.00000000    0.00007006
     atom    2 type  1   force =     0.00000000   -0.00001221   -0.00001509
     atom    3 type  1   force =    -0.00002679   -0.00000000    0.00004033
     atom    4 type  1   force =     0.00002390    0.00002390    0.00004598
     atom    5 type  1   force =    -0.00000000   -0.00000000    0.00002053
     atom    6 type  1   force =     0.00000000    0.00001221   -0.00001509
     atom    7 type  1   force =    -0.00001221    0.00000000   -0.00001509
     atom    8 type  1   force =     0.00002390   -0.00002390    0.00004598
     atom    9 type  1   force =     0.00000000   -0.00000000    0.00002053
     atom   10 type  1   force =     0.00000000   -0.00002679    0.00004033
     atom   11 type  1   force =     0.00002679   -0.00000000    0.00004033
     atom   12 type  1   force =    -0.00002390    0.00002390    0.00004598
     atom   13 type  1   force =     0.00000000   -0.00000000   -0.00003040
     atom   14 type  1   force =    -0.00000000    0.00002679    0.00004033
     atom   15 type  1   force =     0.00001221    0.00000000   -0.00001509
     atom   16 type  1   force =    -0.00002390   -0.00002390    0.00004598

     Total force =     0.000020     Total SCF correction =     0.000175
     SCF correction compared to forces is large: reduce conv_thr to get better values

     Computing stress (Cartesian axis) and pressure

     negative rho (up, down):  2.836E+00 0.000E+00
          total   stress  (Ry/bohr**3)                   (kbar)     P=      -49.54
  -0.00045852   0.00000000   0.00000000          -67.45        0.00        0.00
   0.00000000  -0.00045852   0.00000000            0.00      -67.45        0.00
   0.00000000   0.00000000  -0.00009334            0.00        0.00      -13.73

     kinetic stress (kbar)  14904.59      0.00      0.00
                                0.00  14904.59      0.00
                                0.00      0.00  15158.33

     local   stress (kbar)-212469.87     -0.00      0.00
                               -0.00-212469.87     -0.00
                                0.00     -0.00 222756.11

     nonloc. stress (kbar)   -116.27      0.00      0.00
                                0.00   -116.27      0.00
                                0.00      0.00    -64.11

     hartree stress (kbar) 108801.33      0.00     -0.00
                                0.00 108801.33      0.00
                               -0.00      0.00-101202.58

     exc-cor stress (kbar)  11031.39      0.00      0.00
                                0.00  11031.39     -0.00
                                0.00     -0.00  11023.47

     corecor stress (kbar) -15198.10      0.00     -0.00
                                0.00 -15198.10     -0.00
                               -0.00     -0.00 -15205.08

     ewald   stress (kbar)  92979.47     -0.00     -0.00
                               -0.00  92979.47     -0.00
                               -0.00     -0.00-132479.87

     hubbard stress (kbar)      0.00      0.00      0.00
                                0.00      0.00      0.00
                                0.00      0.00      0.00

     DFT-D   stress (kbar)      0.00      0.00      0.00
                                0.00      0.00      0.00
                                0.00      0.00      0.00

     XDM     stress (kbar)      0.00      0.00      0.00
                                0.00      0.00      0.00
                                0.00      0.00      0.00

     dft-nl  stress (kbar)      0.00      0.00      0.00
                                0.00      0.00      0.00
                                0.00      0.00      0.00

     TS-vdW  stress (kbar)      0.00      0.00      0.00
                                0.00      0.00      0.00
                                0.00      0.00      0.00

     Energy error            =      1.5E-05
     Gradient error          =      6.5E-06

     bfgs converged in   5 scf cycles and   4 bfgs steps
     (criteria: energy <  1.0E-04 Ry, force <  1.0E-03 Ry/Bohr)

     End of BFGS Geometry Optimization

     Final energy   =   -3369.9720501720 Ry

     File ./surface.bfgs deleted, as requested
Begin final coordinates

ATOMIC_POSITIONS (angstrom)
Pt            0.0000000000        0.0000000000        0.0516719235
Pt            3.9767700000        1.9883996632        1.9367043282
Pt            1.9883595489        0.0000000000        1.9366914500
Pt            1.9883913922        1.9883913922        0.0516903364
Pt            0.0000000000        3.9767700000        0.0516880793
Pt            3.9767700000        5.9651403368        1.9367043282
Pt            1.9883996632        3.9767700000        1.9367043282
Pt            1.9883913922        5.9651486078        0.0516903364
Pt            3.9767700000        0.0000000000        0.0516880793
Pt            7.9535400000        1.9883595489        1.9366914500
Pt            5.9651804511        0.0000000000        1.9366914500
Pt            5.9651486078        1.9883913922        0.0516903364
Pt            3.9767700000        3.9767700000        0.0516874596
Pt            7.9535400000        5.9651804511        1.9366914500
Pt            5.9651403368        3.9767700000        1.9367043282
Pt            5.9651486078        5.9651486078        0.0516903364
End final coordinates

     Writing output data file ./surface.save/

     General routines

     Parallel routines

   This run was terminated on:   0:28:38   6Dec2021

   JOB DONE.