     Program PWSCF v.6.7MaX starts on  6Dec2021 at  0:24:51

     R & G space division:  proc/nbgrp/npool/nimage =      32
     Reading input from pt_surface.100.k.qe.5_5_1.in

     Current dimensions of program PWSCF are:
     Max number of different atomic species (ntypx) = 10
     Max number of k-points (npk) =  40000
     Max angular momentum in pseudopotentials (lmaxx) =  3

     Found symmetry operation: I + (  0.2500  0.2500  0.0000)
     This is a supercell, fractional translations are disabled

     bravais-lattice index     =            8
     lattice parameter (alat)  =      15.0300  a.u.
     unit-cell volume          =    5966.5648 (a.u.)^3
     number of atoms/cell      =           16
     number of atomic types    =            1
     number of electrons       =       256.00
     number of Kohn-Sham states=          154
     kinetic-energy cutoff     =      30.0000  Ry
     charge density cutoff     =     300.0000  Ry
     scf convergence threshold =      1.0E-06
     mixing beta               =       0.3000
     number of iterations used =            8  plain     mixing
     energy convergence thresh.=      1.0E-04
     force convergence thresh. =      1.0E-03
     Exchange-correlation=  SLA  PW   PBX  PBC
                           (   1   4   3   4   0   0   0)
     nstep                     =           50

     celldm(1)=  15.030012  celldm(2)=   1.000000  celldm(3)=   1.757302
     celldm(4)=   0.000000  celldm(5)=   0.000000  celldm(6)=   0.000000

     crystal axes: (cart. coord. in units of alat)
               a(1) = (   1.000000   0.000000   0.000000 )
               a(2) = (   0.000000   1.000000   0.000000 )
               a(3) = (   0.000000   0.000000   1.757302 )

     reciprocal axes: (cart. coord. in units 2 pi/alat)
               b(1) = (  1.000000  0.000000  0.000000 )
               b(2) = (  0.000000  1.000000  0.000000 )
               b(3) = (  0.000000  0.000000  0.569054 )

     PseudoPot. # 1 for Pt read from file:
     /expanse/lustre/projects/csd622/tpascal/nano110/qe/pseudo/pt_pbe_v1.4.uspp.F.UPF
     MD5 check sum: f09d6de1a584b5a045c4fc126da2d0c4
     Pseudo is Ultrasoft + core correction, Zval = 16.0
     Generated by new atomic code, or converted to UPF format
     Using radial grid of  985 points,  6 beta functions with:
                l(1) =   0
                l(2) =   0
                l(3) =   1
                l(4) =   1
                l(5) =   2
                l(6) =   2
     Q(r) pseudized with  8 coefficients,  rinner =    1.300   1.300   1.300
                                                       1.300   1.300

     atomic species   valence    mass     pseudopotential
        Pt            16.00   195.08400     Pt( 1.00)

      8 Sym. Ops. (no inversion) found

                                    s                        frac. trans.

      isym =  1     identity

 cryst.   s( 1) = (     1          0          0      )
                  (     0          1          0      )
                  (     0          0          1      )

 cart.    s( 1) = (  1.0000000  0.0000000  0.0000000 )
                  (  0.0000000  1.0000000  0.0000000 )
                  (  0.0000000  0.0000000  1.0000000 )

      isym =  2     180 deg rotation - cart. axis [0,0,1]

[...]

      isym =  4      90 deg rotation - cart. axis [0,0,1]

[...]

      isym =  5     inv. 180 deg rotation - cart. axis [0,1,0]

[...]

      isym =  8     inv. 180 deg rotation - cart. axis [1,-1,0]

 cryst.   s( 8) = (     0          1          0      )
                  (     1          0          0      )
                  (     0          0          1      )

 cart.    s( 8) = (  0.0000000  1.0000000  0.0000000 )
                  (  1.0000000  0.0000000  0.0000000 )
                  (  0.0000000  0.0000000  1.0000000 )

     point group C_4v (4mm)
     there are  5 classes
     the character table:

       E     2C4   C2    2s_v  2s_d
A_1    1.00  1.00  1.00  1.00  1.00
A_2    1.00  1.00  1.00 -1.00 -1.00
B_1    1.00 -1.00  1.00  1.00 -1.00
B_2    1.00 -1.00  1.00 -1.00  1.00
E      2.00  0.00 -2.00  0.00  0.00

     the symmetry operations in each class and the name of the first element:

     E        1
          identity
     2C4      3    4
           90 deg rotation - cart. axis [0,0,-1]
     C2       2
          180 deg rotation - cart. axis [0,0,1]
     2s_v     5    6
          inv. 180 deg rotation - cart. axis [0,1,0]
     2s_d     7    8
          inv. 180 deg rotation - cart. axis [1,1,0]

   Cartesian axes

     site n.     atom                  positions (alat units)
         1           Pt  tau(   1) = (   0.0000000   0.0000000   0.0000000  )
         2           Pt  tau(   2) = (   0.5000000   0.2500000   0.2500000  )
         3           Pt  tau(   3) = (   0.2500000   0.0000000   0.2500000  )
         4           Pt  tau(   4) = (   0.2500000   0.2500000   0.0000000  )
         5           Pt  tau(   5) = (   0.0000000   0.5000000   0.0000000  )
         6           Pt  tau(   6) = (   0.5000000   0.7500000   0.2500000  )
         7           Pt  tau(   7) = (   0.2500000   0.5000000   0.2500000  )
         8           Pt  tau(   8) = (   0.2500000   0.7500000   0.0000000  )
         9           Pt  tau(   9) = (   0.5000000   0.0000000   0.0000000  )
        10           Pt  tau(  10) = (   1.0000000   0.2500000   0.2500000  )
        11           Pt  tau(  11) = (   0.7500000   0.0000000   0.2500000  )
        12           Pt  tau(  12) = (   0.7500000   0.2500000   0.0000000  )
        13           Pt  tau(  13) = (   0.5000000   0.5000000   0.0000000  )
        14           Pt  tau(  14) = (   1.0000000   0.7500000   0.2500000  )
        15           Pt  tau(  15) = (   0.7500000   0.5000000   0.2500000  )
        16           Pt  tau(  16) = (   0.7500000   0.7500000   0.0000000  )

   Crystallographic axes

     site n.     atom                  positions (cryst. coord.)
         1           Pt  tau(   1) = (  0.0000000  0.0000000  0.0000000  )
         2           Pt  tau(   2) = (  0.5000000  0.2500000  0.1422636  )
         3           Pt  tau(   3) = (  0.2500000  0.0000000  0.1422636  )
         4           Pt  tau(   4) = (  0.2500000  0.2500000  0.0000000  )
         5           Pt  tau(   5) = (  0.0000000  0.5000000  0.0000000  )
         6           Pt  tau(   6) = (  0.5000000  0.7500000  0.1422636  )
         7           Pt  tau(   7) = (  0.2500000  0.5000000  0.1422636  )
         8           Pt  tau(   8) = (  0.2500000  0.7500000  0.0000000  )
         9           Pt  tau(   9) = (  0.5000000  0.0000000  0.0000000  )
        10           Pt  tau(  10) = (  1.0000000  0.2500000  0.1422636  )
        11           Pt  tau(  11) = (  0.7500000  0.0000000  0.1422636  )
        12           Pt  tau(  12) = (  0.7500000  0.2500000  0.0000000  )
        13           Pt  tau(  13) = (  0.5000000  0.5000000  0.0000000  )
        14           Pt  tau(  14) = (  1.0000000  0.7500000  0.1422636  )
        15           Pt  tau(  15) = (  0.7500000  0.5000000  0.1422636  )
        16           Pt  tau(  16) = (  0.7500000  0.7500000  0.0000000  )

     number of k points=     6  Gaussian smearing, width (Ry)=  0.0030
                       cart. coord. in units 2pi/alat
        k(    1) = (   0.0000000   0.0000000   0.0000000), wk =   0.0800000
        k(    2) = (   0.0000000   0.2000000   0.0000000), wk =   0.3200000
        k(    3) = (   0.0000000   0.4000000   0.0000000), wk =   0.3200000
        k(    4) = (   0.2000000   0.2000000   0.0000000), wk =   0.3200000
        k(    5) = (   0.2000000   0.4000000   0.0000000), wk =   0.6400000
        k(    6) = (   0.4000000   0.4000000   0.0000000), wk =   0.3200000

                       cryst. coord.
        k(    1) = (   0.0000000   0.0000000   0.0000000), wk =   0.0800000
        k(    2) = (   0.0000000   0.2000000   0.0000000), wk =   0.3200000
        k(    3) = (   0.0000000   0.4000000   0.0000000), wk =   0.3200000
        k(    4) = (   0.2000000   0.2000000   0.0000000), wk =   0.3200000
        k(    5) = (   0.2000000   0.4000000   0.0000000), wk =   0.6400000
        k(    6) = (   0.4000000   0.4000000   0.0000000), wk =   0.3200000

     Initial potential from superposition of free atoms

     starting charge  247.99982, renormalised to  256.00000

     negative rho (up, down):  3.024E+00 0.000E+00
     Starting wfcs are  192 randomized atomic wfcs

     Self-consistent Calculation

     iteration #  1     ecut=    30.00 Ry     beta= 0.30
     Davidson diagonalization with overlap
     ethr =  1.00E-02,  avg # of iterations =  7.5

     negative rho (up, down):  2.872E+00 0.000E+00

     total energy              =   -3364.02801386 Ry
     estimated scf accuracy    <      29.16324832 Ry

[...]

     End of self-consistent calculation

          k = 0.0000 0.0000 0.0000 ( 16575 PWs)   bands (ev):

   -50.3275 -50.3275 -50.3122 -50.3122 -50.3121 -50.3121 -50.2236 -50.2236
   -50.2235 -50.2235 -50.2133 -50.2133 -50.2100 -50.2100 -50.2099 -50.2099
   -50.1821 -50.1821 -50.1820 -50.1820 -50.1284 -50.1284 -50.1283 -50.1283
   -50.1186 -50.1186 -50.1156 -50.0638 -50.0638 -50.0638 -50.0637 -50.0425
   -50.0425 -50.0268 -50.0268 -50.0267 -50.0267 -49.9810 -49.9809 -49.9788
   -49.9787 -49.9787 -49.9786 -49.9379 -49.9378 -49.9377 -49.9377 -49.9226
    -5.5594  -3.5245  -3.2667  -3.2666  -3.2666  -3.2666  -3.2393  -3.2393
    -3.2393  -3.2393  -3.1187  -2.9928  -2.9928  -2.4838  -2.4838  -1.9904
    -1.9904  -1.9904  -1.9904  -1.7826  -1.7826  -1.7826  -1.7826  -1.7730
    -1.2244  -1.2243  -1.2243  -1.2243  -1.1170  -1.1170  -1.1170  -1.1170
    -0.6031  -0.6031  -0.6031  -0.6031  -0.4766  -0.4766  -0.4766  -0.4766
    -0.2874  -0.2873  -0.2873  -0.2873  -0.2790  -0.2790  -0.2789  -0.2789
    -0.0869  -0.0869   0.1916   0.4317   0.4318   0.4318   0.4318   0.5356
     0.5356   0.5356   0.5356   0.6736   0.6736   0.6737   0.6737   0.7613
     0.7613   0.9199   1.3291   1.3859   1.3859   1.3859   1.3859   1.4292
     1.4293   1.6756   1.6756   1.6756   1.6756   1.7173   1.7173   1.7173
     1.7174   1.9425   1.9425   2.0969   2.8856   2.8857   3.7932   3.7932
     3.7932   3.7932   3.9119   3.9119   3.9119   3.9119   4.0063   6.2153
     6.2153   6.2153   6.2153   6.4997   6.4997   7.4786   7.8280   8.0026
     8.0026   8.0026

     occupation numbers
     1.0000   1.0000   1.0000   1.0000   1.0000   1.0000   1.0000   1.0000
     1.0000   1.0000   1.0000   1.0000   1.0000   1.0000   1.0000   1.0000
     1.0000   1.0000   1.0000   1.0000   1.0000   1.0000   1.0000   1.0000
     1.0000   1.0000   1.0000   1.0000   1.0000   1.0000   1.0000   1.0000
     1.0000   1.0000   1.0000   1.0000   1.0000   1.0000   1.0000   1.0000
     1.0000   1.0000   1.0000   1.0000   1.0000   1.0000   1.0000   1.0000
     1.0000   1.0000   1.0000   1.0000   1.0000   1.0000   1.0000   1.0000
     1.0000   1.0000   1.0000   1.0000   1.0000   1.0000   1.0000   1.0000
     1.0000   1.0000   1.0000   1.0000   1.0000   1.0000   1.0000   1.0000
     1.0000   1.0000   1.0000   1.0000   1.0000   1.0000   1.0000   1.0000
     1.0000   1.0000   1.0000   1.0000   1.0000   1.0000   1.0000   1.0000
[...]

[...]

     End of self-consistent calculation

[...]

          k = 0.4000 0.4000 0.0000 ( 16566 PWs)   bands (ev):

   -50.4224 -50.4224 -50.4180 -50.4180 -50.4166 -50.4166 -50.4107 -50.4107
   -50.3708 -50.3394 -50.3394 -50.3342 -50.3087 -50.3008 -50.3008 -50.2713
   -50.2641 -50.2641 -50.2548 -50.2548 -50.2366 -50.2366 -50.2220 -50.2220
   -50.2160 -50.2131 -50.2131 -50.1987 -50.1399 -50.1388 -50.1388 -50.1341
   -50.1290 -50.1290 -50.1271 -50.1218 -50.0775 -50.0775 -50.0668 -50.0668
   -50.0614 -50.0614 -50.0505 -50.0505 -50.0063 -49.9993 -49.9993 -49.9946
    -4.9680  -4.5421  -4.5421  -4.2639  -3.3894  -3.3351  -3.2760  -3.2760
    -2.9541  -2.9541  -2.9120  -2.9120  -2.8353  -2.8353  -2.7408  -2.7407
    -2.5228  -2.5228  -2.5210  -2.2642  -2.2642  -2.2065  -2.2065  -2.1016
    -2.1015  -1.9290  -1.9290  -1.8297  -1.2432  -1.0246  -1.0169  -1.0169
    -0.9755  -0.9755  -0.7837  -0.7706  -0.6063  -0.6063  -0.4483  -0.4483
    -0.4435  -0.3636  -0.3141  -0.3140  -0.1453  -0.1452  -0.1346  -0.1302
    -0.1302  -0.0562   0.2224   0.2224   0.2239   0.2239   0.2783   0.3397
     0.6975   0.6976   0.8927   0.9244   0.9244   0.9495   0.9495   0.9606
     0.9606   1.0285   1.0285   1.0965   1.3350   1.3350   1.3771   1.3771
     1.4816   1.4816   1.5435   1.6038   1.6038   1.6847   1.6847   1.7035
     1.9817   2.1312   2.1312   2.1414   2.1637   2.5390   2.5390   2.8611
     3.9116   3.9116   4.8118   4.8118   5.3893   5.3893   5.9280   6.3711
     6.3711   6.5992   6.5992   6.8546   6.8546   7.0791   7.2936   7.2936
     8.3586   8.4431

     occupation numbers
     1.0000   1.0000   1.0000   1.0000   1.0000   1.0000   1.0000   1.0000
     1.0000   1.0000   1.0000   1.0000   1.0000   1.0000   1.0000   1.0000
     1.0000   1.0000   1.0000   1.0000   1.0000   1.0000   1.0000   1.0000
     1.0000   1.0000   1.0000   1.0000   1.0000   1.0000   1.0000   1.0000
     1.0000   1.0000   1.0000   1.0000   1.0000   1.0000   1.0000   1.0000
     1.0000   1.0000   1.0000   1.0000   1.0000   1.0000   1.0000   1.0000
     1.0000   1.0000   1.0000   1.0000   1.0000   1.0000   1.0000   1.0000
     1.0000   1.0000   1.0000   1.0000   1.0000   1.0000   1.0000   1.0000
     1.0000   1.0000   1.0000   1.0000   1.0000   1.0000   1.0000   1.0000
     1.0000   1.0000   1.0000   1.0000   1.0000   1.0000   1.0000   1.0000
     1.0000   1.0000   1.0000   1.0000   1.0000   1.0000   1.0000   1.0000
     1.0000   1.0000   1.0000   1.0000   1.0000   1.0000   1.0000   1.0000
     1.0000   1.0000   1.0000   1.0000   1.0000   1.0000   1.0000   1.0000
     1.0000   1.0000   1.0000   1.0000   1.0000   1.0000   1.0000   1.0000
     1.0000   1.0000   1.0000   1.0000   1.0000   1.0000   1.0000   1.0000
     1.0000   1.0000   1.0000   1.0000   1.0000   1.0000   1.0000   1.0000
     0.0524   0.0000   0.0000   0.0000   0.0000   0.0000   0.0000   0.0000
     0.0000   0.0000   0.0000   0.0000   0.0000   0.0000   0.0000   0.0000
     0.0000   0.0000   0.0000   0.0000   0.0000   0.0000   0.0000   0.0000
     0.0000   0.0000

     the Fermi energy is     1.9349 ev

!    total energy              =   -3369.97564201 Ry
     estimated scf accuracy    <          6.1E-09 Ry
     smearing contrib. (-TS)   =      -0.00226899 Ry
     internal energy E=F+TS    =   -3369.97337301 Ry

     The total energy is F=E-TS. E is the sum of the following terms:
     one-electron contribution =   -9358.19075003 Ry
     hartree contribution      =    4724.22323910 Ry
     xc contribution           =    -908.43881177 Ry
     ewald contribution        =    2172.43294969 Ry

     convergence has been achieved in   8 iterations

     negative rho (up, down):  2.834E+00 0.000E+00

     Forces acting on atoms (cartesian axes, Ry/au):

     atom    1 type  1   force =     0.00000000    0.00000000    0.00002935
     atom    2 type  1   force =     0.00000000    0.00000124   -0.00003151
     atom    3 type  1   force =     0.00000572    0.00000000   -0.00003297
     atom    4 type  1   force =    -0.00000259   -0.00000259    0.00003003
     atom    5 type  1   force =     0.00000000    0.00000000    0.00003362
     atom    6 type  1   force =     0.00000000   -0.00000124   -0.00003151
     atom    7 type  1   force =     0.00000124    0.00000000   -0.00003151
     atom    8 type  1   force =    -0.00000259    0.00000259    0.00003003
     atom    9 type  1   force =     0.00000000    0.00000000    0.00003362
     atom   10 type  1   force =     0.00000000    0.00000572   -0.00003297
     atom   11 type  1   force =    -0.00000572    0.00000000   -0.00003297
     atom   12 type  1   force =     0.00000259   -0.00000259    0.00003003
     atom   13 type  1   force =     0.00000000    0.00000000    0.00004123
     atom   14 type  1   force =     0.00000000   -0.00000572   -0.00003297
     atom   15 type  1   force =    -0.00000124    0.00000000   -0.00003151
     atom   16 type  1   force =     0.00000259    0.00000259    0.00003003
     The non-local contrib.  to forces
     atom    1 type  1   force =     0.00000000    0.00000000   -0.08535652
     atom    2 type  1   force =     0.00000000    0.00000230    0.08536592
     atom    3 type  1   force =     0.00000012    0.00000000    0.08536308
     atom    4 type  1   force =    -0.00000164   -0.00000164   -0.08535472
     atom    5 type  1   force =     0.00000000    0.00000000   -0.08535641
     atom    6 type  1   force =     0.00000000   -0.00000230    0.08536592
     atom    7 type  1   force =     0.00000230    0.00000000    0.08536592
     atom    8 type  1   force =    -0.00000164    0.00000164   -0.08535472
     atom    9 type  1   force =     0.00000000    0.00000000   -0.08535641
     atom   10 type  1   force =     0.00000000    0.00000012    0.08536308
     atom   11 type  1   force =    -0.00000012    0.00000000    0.08536308
     atom   12 type  1   force =     0.00000164   -0.00000164   -0.08535472
     atom   13 type  1   force =     0.00000000    0.00000000   -0.08535059
     atom   14 type  1   force =     0.00000000   -0.00000012    0.08536308
     atom   15 type  1   force =    -0.00000230    0.00000000    0.08536592
     atom   16 type  1   force =     0.00000164    0.00000164   -0.08535472
     The ionic contribution  to forces
     atom    1 type  1   force =     0.00000000    0.00000000  -77.66587478
     atom    2 type  1   force =     0.00000000    0.00048875   77.66583319
     atom    3 type  1   force =    -0.00018207    0.00000000   77.66619294
     atom    4 type  1   force =     0.00009575    0.00009575  -77.66551033
     atom    5 type  1   force =     0.00000000    0.00000000  -77.66670476
     atom    6 type  1   force =     0.00000000   -0.00048875   77.66583319
     atom    7 type  1   force =     0.00048875    0.00000000   77.66583319
     atom    8 type  1   force =     0.00009575   -0.00009575  -77.66551033
     atom    9 type  1   force =     0.00000000    0.00000000  -77.66670476
     atom   10 type  1   force =    -0.00000000   -0.00018207   77.66619294
     atom   11 type  1   force =     0.00018207    0.00000000   77.66619294
     atom   12 type  1   force =    -0.00009575    0.00009575  -77.66551033
     atom   13 type  1   force =    -0.00000000    0.00000000  -77.66677889
     atom   14 type  1   force =    -0.00000000    0.00018207   77.66619294
     atom   15 type  1   force =    -0.00048875    0.00000000   77.66583319
     atom   16 type  1   force =    -0.00009575   -0.00009575  -77.66551033
     The local contribution  to forces
     atom    1 type  1   force =    -0.00000000   -0.00000000   77.72330190
     atom    2 type  1   force =     0.00000000   -0.00047363  -77.72330217
     atom    3 type  1   force =     0.00011382   -0.00000000  -77.72360584
     atom    4 type  1   force =    -0.00007327   -0.00007327   77.72285225
     atom    5 type  1   force =    -0.00000000    0.00000000   77.72404086
     atom    6 type  1   force =    -0.00000000    0.00047363  -77.72330217
     atom    7 type  1   force =    -0.00047363    0.00000000  -77.72330217
     atom    8 type  1   force =    -0.00007327    0.00007327   77.72285225
     atom    9 type  1   force =     0.00000000   -0.00000000   77.72404086
     atom   10 type  1   force =     0.00000000    0.00011382  -77.72360584
     atom   11 type  1   force =    -0.00011382   -0.00000000  -77.72360584
     atom   12 type  1   force =     0.00007327   -0.00007327   77.72285225
     atom   13 type  1   force =     0.00000000    0.00000000   77.72408359
     atom   14 type  1   force =     0.00000000   -0.00011382  -77.72360584
     atom   15 type  1   force =     0.00047363   -0.00000000  -77.72330217
     atom   16 type  1   force =     0.00007327    0.00007327   77.72285225
     The core correction contribution to forces
     atom    1 type  1   force =     0.00000000    0.00000000    0.02800988
     atom    2 type  1   force =     0.00000000   -0.00000034   -0.02800633
     atom    3 type  1   force =    -0.00000012    0.00000000   -0.02800695
     atom    4 type  1   force =    -0.00000020   -0.00000020    0.02800979
     atom    5 type  1   force =     0.00000000    0.00000000    0.02800944
     atom    6 type  1   force =    -0.00000000    0.00000034   -0.02800633
     atom    7 type  1   force =    -0.00000034    0.00000000   -0.02800633
     atom    8 type  1   force =    -0.00000020    0.00000020    0.02800979
     atom    9 type  1   force =     0.00000000    0.00000000    0.02800944
     atom   10 type  1   force =     0.00000000   -0.00000012   -0.02800695
     atom   11 type  1   force =     0.00000012    0.00000000   -0.02800695
     atom   12 type  1   force =     0.00000020   -0.00000020    0.02800979
     atom   13 type  1   force =     0.00000000    0.00000000    0.02801005
     atom   14 type  1   force =     0.00000000    0.00000012   -0.02800695
     atom   15 type  1   force =     0.00000034   -0.00000000   -0.02800633
     atom   16 type  1   force =     0.00000020    0.00000020    0.02800979
     The Hubbard contrib.    to forces
     atom    1 type  1   force =     0.00000000    0.00000000    0.00000000
     atom    2 type  1   force =     0.00000000    0.00000000    0.00000000
     atom    3 type  1   force =     0.00000000    0.00000000    0.00000000
     atom    4 type  1   force =     0.00000000    0.00000000    0.00000000
     atom    5 type  1   force =     0.00000000    0.00000000    0.00000000
     atom    6 type  1   force =     0.00000000    0.00000000    0.00000000
     atom    7 type  1   force =     0.00000000    0.00000000    0.00000000
     atom    8 type  1   force =     0.00000000    0.00000000    0.00000000
     atom    9 type  1   force =     0.00000000    0.00000000    0.00000000
     atom   10 type  1   force =     0.00000000    0.00000000    0.00000000
     atom   11 type  1   force =     0.00000000    0.00000000    0.00000000
     atom   12 type  1   force =     0.00000000    0.00000000    0.00000000
     atom   13 type  1   force =     0.00000000    0.00000000    0.00000000
     atom   14 type  1   force =     0.00000000    0.00000000    0.00000000
     atom   15 type  1   force =     0.00000000    0.00000000    0.00000000
     atom   16 type  1   force =     0.00000000    0.00000000    0.00000000
     The SCF correction term to forces
     atom    1 type  1   force =     0.00000000    0.00000000   -0.00004448
     atom    2 type  1   force =    -0.00000000   -0.00001585    0.00008454
     atom    3 type  1   force =     0.00007398    0.00000000    0.00003046
     atom    4 type  1   force =    -0.00002323   -0.00002323    0.00003969
     atom    5 type  1   force =    -0.00000000   -0.00000000    0.00005115
     atom    6 type  1   force =     0.00000000    0.00001585    0.00008454
     atom    7 type  1   force =    -0.00001585    0.00000000    0.00008454
     atom    8 type  1   force =    -0.00002323    0.00002323    0.00003969
     atom    9 type  1   force =    -0.00000000   -0.00000000    0.00005115
     atom   10 type  1   force =     0.00000000    0.00007398    0.00003046
     atom   11 type  1   force =    -0.00007398    0.00000000    0.00003046
     atom   12 type  1   force =     0.00002323   -0.00002323    0.00003969
     atom   13 type  1   force =     0.00000000   -0.00000000    0.00008373
     atom   14 type  1   force =     0.00000000   -0.00007398    0.00003046
     atom   15 type  1   force =     0.00001585    0.00000000    0.00008454
     atom   16 type  1   force =     0.00002323    0.00002323    0.00003969

     Total force =     0.000130     Total SCF correction =     0.000283
     SCF correction compared to forces is large: reduce conv_thr to get better values

     Computing stress (Cartesian axis) and pressure

     negative rho (up, down):  2.834E+00 0.000E+00
          total   stress  (Ry/bohr**3)                   (kbar)     P=      -49.31
  -0.00045606   0.00000000   0.00000000          -67.09        0.00        0.00
   0.00000000  -0.00045606   0.00000000            0.00      -67.09        0.00
   0.00000000   0.00000000  -0.00009357            0.00        0.00      -13.76

     kinetic stress (kbar)  14904.60      0.00      0.00
                                0.00  14904.60      0.00
                                0.00      0.00  15155.23

     local   stress (kbar)-212644.41      0.00      0.00
                                0.00-212644.41      0.00
                                0.00      0.00 222948.05

     nonloc. stress (kbar)   -115.86      0.00      0.00
                                0.00   -115.86      0.00
                                0.00      0.00    -61.48

     hartree stress (kbar) 108882.54     -0.00     -0.00
                               -0.00 108882.54      0.00
                               -0.00      0.00-101289.81

     exc-cor stress (kbar)  11031.42      0.00     -0.00
                                0.00  11031.42     -0.00
                               -0.00     -0.00  11023.50

     corecor stress (kbar) -15198.14      0.00      0.00
                                0.00 -15198.14     -0.00
                                0.00     -0.00 -15204.84

     ewald   stress (kbar)  93072.77     -0.00      0.00
                               -0.00  93072.77      0.00
                                0.00      0.00-132584.41

     hubbard stress (kbar)      0.00      0.00      0.00
                                0.00      0.00      0.00
                                0.00      0.00      0.00

     DFT-D   stress (kbar)      0.00      0.00      0.00
                                0.00      0.00      0.00
                                0.00      0.00      0.00

     XDM     stress (kbar)      0.00      0.00      0.00
                                0.00      0.00      0.00
                                0.00      0.00      0.00

     dft-nl  stress (kbar)      0.00      0.00      0.00
                                0.00      0.00      0.00
                                0.00      0.00      0.00

     TS-vdW  stress (kbar)      0.00      0.00      0.00
                                0.00      0.00      0.00
                                0.00      0.00      0.00

     Energy error            =      6.8E-06
     Gradient error          =      4.1E-05

     bfgs converged in   5 scf cycles and   4 bfgs steps
     (criteria: energy <  1.0E-04 Ry, force <  1.0E-03 Ry/Bohr)

     End of BFGS Geometry Optimization

     Final energy   =   -3369.9756420050 Ry

     File ./surface.bfgs deleted, as requested
Begin final coordinates

ATOMIC_POSITIONS (angstrom)
Pt            0.0000000000        0.0000000000        0.0531060790
Pt            3.9767700000        1.9883806684        1.9352785745
Pt            1.9883899829        0.0000000000        1.9352823662
Pt            1.9883820498        1.9883820498        0.0531138341
Pt            0.0000000000        3.9767700000        0.0530947987
Pt            3.9767700000        5.9651593316        1.9352785745
Pt            1.9883806684        3.9767700000        1.9352785745
Pt            1.9883820498        5.9651579502        0.0531138341
Pt            3.9767700000        0.0000000000        0.0530947987
Pt            7.9535400000        1.9883899829        1.9352823662
Pt            5.9651500171        0.0000000000        1.9352823662
Pt            5.9651579502        1.9883820498        0.0531138341
Pt            3.9767700000        3.9767700000        0.0530852248
Pt            7.9535400000        5.9651500171        1.9352823662
Pt            5.9651593316        3.9767700000        1.9352785745
Pt            5.9651579502        5.9651579502        0.0531138341
End final coordinates

     Writing output data file ./surface.save/

     General routines

     Parallel routines

   This run was terminated on:   0:27:25   6Dec2021

   JOB DONE.