     Program PWSCF v.6.7MaX starts on  6Dec2021 at  0:24:51

     R & G space division:  proc/nbgrp/npool/nimage =      32
     Reading input from pt_surface.100.k.qe.6_6_1.in

     Current dimensions of program PWSCF are:
     Max number of different atomic species (ntypx) = 10
     Max number of k-points (npk) =  40000
     Max angular momentum in pseudopotentials (lmaxx) =  3

     Found symmetry operation: I + (  0.2500  0.2500  0.0000)
     This is a supercell, fractional translations are disabled

     bravais-lattice index     =            8
     lattice parameter (alat)  =      15.0300  a.u.
     unit-cell volume          =    5966.5648 (a.u.)^3
     number of atoms/cell      =           16
     number of atomic types    =            1
     number of electrons       =       256.00
     number of Kohn-Sham states=          154
     kinetic-energy cutoff     =      30.0000  Ry
     charge density cutoff     =     300.0000  Ry
     scf convergence threshold =      1.0E-06
     mixing beta               =       0.3000
     number of iterations used =            8  plain     mixing
     energy convergence thresh.=      1.0E-04
     force convergence thresh. =      1.0E-03
     Exchange-correlation=  SLA  PW   PBX  PBC
                           (   1   4   3   4   0   0   0)
     nstep                     =           50

     celldm(1)=  15.030012  celldm(2)=   1.000000  celldm(3)=   1.757302
     celldm(4)=   0.000000  celldm(5)=   0.000000  celldm(6)=   0.000000

     crystal axes: (cart. coord. in units of alat)
               a(1) = (   1.000000   0.000000   0.000000 )
               a(2) = (   0.000000   1.000000   0.000000 )
               a(3) = (   0.000000   0.000000   1.757302 )

     reciprocal axes: (cart. coord. in units 2 pi/alat)
               b(1) = (  1.000000  0.000000  0.000000 )
               b(2) = (  0.000000  1.000000  0.000000 )
               b(3) = (  0.000000  0.000000  0.569054 )

     PseudoPot. # 1 for Pt read from file:
     /expanse/lustre/projects/csd622/tpascal/nano110/qe/pseudo/pt_pbe_v1.4.uspp.F.UPF
     MD5 check sum: f09d6de1a584b5a045c4fc126da2d0c4
     Pseudo is Ultrasoft + core correction, Zval = 16.0
     Generated by new atomic code, or converted to UPF format
     Using radial grid of  985 points,  6 beta functions with:
                l(1) =   0
                l(2) =   0
                l(3) =   1
                l(4) =   1
                l(5) =   2
                l(6) =   2
     Q(r) pseudized with  8 coefficients,  rinner =    1.300   1.300   1.300
                                                       1.300   1.300

     atomic species   valence    mass     pseudopotential
        Pt            16.00   195.08400     Pt( 1.00)

      8 Sym. Ops. (no inversion) found

                                    s                        frac. trans.

      isym =  1     identity

 cryst.   s( 1) = (     1          0          0      )
                  (     0          1          0      )
                  (     0          0          1      )

 cart.    s( 1) = (  1.0000000  0.0000000  0.0000000 )
                  (  0.0000000  1.0000000  0.0000000 )
                  (  0.0000000  0.0000000  1.0000000 )

      isym =  2     180 deg rotation - cart. axis [0,0,1]

[...]

      isym =  4      90 deg rotation - cart. axis [0,0,1]

[...]

      isym =  5     inv. 180 deg rotation - cart. axis [0,1,0]

[...]

      isym =  8     inv. 180 deg rotation - cart. axis [1,-1,0]

 cryst.   s( 8) = (     0          1          0      )
                  (     1          0          0      )
                  (     0          0          1      )

 cart.    s( 8) = (  0.0000000  1.0000000  0.0000000 )
                  (  1.0000000  0.0000000  0.0000000 )
                  (  0.0000000  0.0000000  1.0000000 )

     point group C_4v (4mm)
     there are  5 classes
     the character table:

       E     2C4   C2    2s_v  2s_d
A_1    1.00  1.00  1.00  1.00  1.00
A_2    1.00  1.00  1.00 -1.00 -1.00
B_1    1.00 -1.00  1.00  1.00 -1.00
B_2    1.00 -1.00  1.00 -1.00  1.00
E      2.00  0.00 -2.00  0.00  0.00

     the symmetry operations in each class and the name of the first element:

     E        1
          identity
     2C4      3    4
           90 deg rotation - cart. axis [0,0,-1]
     C2       2
          180 deg rotation - cart. axis [0,0,1]
     2s_v     5    6
          inv. 180 deg rotation - cart. axis [0,1,0]
     2s_d     7    8
          inv. 180 deg rotation - cart. axis [1,1,0]

   Cartesian axes

     site n.     atom                  positions (alat units)
         1           Pt  tau(   1) = (   0.0000000   0.0000000   0.0000000  )
         2           Pt  tau(   2) = (   0.5000000   0.2500000   0.2500000  )
         3           Pt  tau(   3) = (   0.2500000   0.0000000   0.2500000  )
         4           Pt  tau(   4) = (   0.2500000   0.2500000   0.0000000  )
         5           Pt  tau(   5) = (   0.0000000   0.5000000   0.0000000  )
         6           Pt  tau(   6) = (   0.5000000   0.7500000   0.2500000  )
         7           Pt  tau(   7) = (   0.2500000   0.5000000   0.2500000  )
         8           Pt  tau(   8) = (   0.2500000   0.7500000   0.0000000  )
         9           Pt  tau(   9) = (   0.5000000   0.0000000   0.0000000  )
        10           Pt  tau(  10) = (   1.0000000   0.2500000   0.2500000  )
        11           Pt  tau(  11) = (   0.7500000   0.0000000   0.2500000  )
        12           Pt  tau(  12) = (   0.7500000   0.2500000   0.0000000  )
        13           Pt  tau(  13) = (   0.5000000   0.5000000   0.0000000  )
        14           Pt  tau(  14) = (   1.0000000   0.7500000   0.2500000  )
        15           Pt  tau(  15) = (   0.7500000   0.5000000   0.2500000  )
        16           Pt  tau(  16) = (   0.7500000   0.7500000   0.0000000  )

   Crystallographic axes

     site n.     atom                  positions (cryst. coord.)
         1           Pt  tau(   1) = (  0.0000000  0.0000000  0.0000000  )
         2           Pt  tau(   2) = (  0.5000000  0.2500000  0.1422636  )
         3           Pt  tau(   3) = (  0.2500000  0.0000000  0.1422636  )
         4           Pt  tau(   4) = (  0.2500000  0.2500000  0.0000000  )
         5           Pt  tau(   5) = (  0.0000000  0.5000000  0.0000000  )
         6           Pt  tau(   6) = (  0.5000000  0.7500000  0.1422636  )
         7           Pt  tau(   7) = (  0.2500000  0.5000000  0.1422636  )
         8           Pt  tau(   8) = (  0.2500000  0.7500000  0.0000000  )
         9           Pt  tau(   9) = (  0.5000000  0.0000000  0.0000000  )
        10           Pt  tau(  10) = (  1.0000000  0.2500000  0.1422636  )
        11           Pt  tau(  11) = (  0.7500000  0.0000000  0.1422636  )
        12           Pt  tau(  12) = (  0.7500000  0.2500000  0.0000000  )
        13           Pt  tau(  13) = (  0.5000000  0.5000000  0.0000000  )
        14           Pt  tau(  14) = (  1.0000000  0.7500000  0.1422636  )
        15           Pt  tau(  15) = (  0.7500000  0.5000000  0.1422636  )
        16           Pt  tau(  16) = (  0.7500000  0.7500000  0.0000000  )

     number of k points=    10  Gaussian smearing, width (Ry)=  0.0030
                       cart. coord. in units 2pi/alat
        k(    1) = (   0.0000000   0.0000000   0.0000000), wk =   0.0555556
        k(    2) = (   0.0000000   0.1666667   0.0000000), wk =   0.2222222
        k(    3) = (   0.0000000   0.3333333   0.0000000), wk =   0.2222222
        k(    4) = (   0.0000000  -0.5000000   0.0000000), wk =   0.1111111
        k(    5) = (   0.1666667   0.1666667   0.0000000), wk =   0.2222222
        k(    6) = (   0.1666667   0.3333333   0.0000000), wk =   0.4444444
        k(    7) = (   0.1666667  -0.5000000   0.0000000), wk =   0.2222222
        k(    8) = (   0.3333333   0.3333333   0.0000000), wk =   0.2222222
        k(    9) = (   0.3333333  -0.5000000   0.0000000), wk =   0.2222222
        k(   10) = (  -0.5000000  -0.5000000   0.0000000), wk =   0.0555556

                       cryst. coord.
        k(    1) = (   0.0000000   0.0000000   0.0000000), wk =   0.0555556
        k(    2) = (   0.0000000   0.1666667   0.0000000), wk =   0.2222222
        k(    3) = (   0.0000000   0.3333333   0.0000000), wk =   0.2222222
        k(    4) = (   0.0000000  -0.5000000   0.0000000), wk =   0.1111111
        k(    5) = (   0.1666667   0.1666667   0.0000000), wk =   0.2222222
        k(    6) = (   0.1666667   0.3333333   0.0000000), wk =   0.4444444
        k(    7) = (   0.1666667  -0.5000000   0.0000000), wk =   0.2222222
        k(    8) = (   0.3333333   0.3333333   0.0000000), wk =   0.2222222
        k(    9) = (   0.3333333  -0.5000000   0.0000000), wk =   0.2222222
        k(   10) = (  -0.5000000  -0.5000000   0.0000000), wk =   0.0555556

     Initial potential from superposition of free atoms

     starting charge  247.99982, renormalised to  256.00000

     negative rho (up, down):  3.024E+00 0.000E+00
     Starting wfcs are  192 randomized atomic wfcs

     Self-consistent Calculation

     iteration #  1     ecut=    30.00 Ry     beta= 0.30
     Davidson diagonalization with overlap
     ethr =  1.00E-02,  avg # of iterations =  7.5

     negative rho (up, down):  2.871E+00 0.000E+00

     total energy              =   -3363.57671430 Ry
     estimated scf accuracy    <      30.13351201 Ry

[...]

     End of self-consistent calculation

          k = 0.0000 0.0000 0.0000 ( 16575 PWs)   bands (ev):

   -50.3336 -50.3336 -50.3177 -50.3177 -50.3177 -50.3177 -50.2296 -50.2296
   -50.2296 -50.2296 -50.2194 -50.2194 -50.2151 -50.2151 -50.2151 -50.2151
   -50.1878 -50.1878 -50.1877 -50.1877 -50.1344 -50.1344 -50.1344 -50.1344
   -50.1246 -50.1246 -50.1138 -50.0698 -50.0698 -50.0698 -50.0698 -50.0485
   -50.0485 -50.0258 -50.0257 -50.0257 -50.0257 -49.9790 -49.9790 -49.9773
   -49.9773 -49.9773 -49.9772 -49.9363 -49.9363 -49.9362 -49.9362 -49.9207
    -5.5658  -3.5298  -3.2734  -3.2734  -3.2734  -3.2734  -3.2447  -3.2447
    -3.2447  -3.2447  -3.1287  -2.9977  -2.9977  -2.4874  -2.4874  -1.9967
    -1.9967  -1.9967  -1.9967  -1.7864  -1.7864  -1.7864  -1.7864  -1.7832
    -1.2287  -1.2287  -1.2287  -1.2287  -1.1212  -1.1212  -1.1212  -1.1212
    -0.6070  -0.6070  -0.6070  -0.6070  -0.4833  -0.4833  -0.4833  -0.4833
    -0.2920  -0.2920  -0.2920  -0.2920  -0.2880  -0.2879  -0.2879  -0.2879
    -0.0897  -0.0897   0.1904   0.4284   0.4284   0.4284   0.4284   0.5326
     0.5326   0.5326   0.5327   0.6699   0.6699   0.6699   0.6699   0.7584
     0.7584   0.9184   1.3240   1.3832   1.3832   1.3832   1.3832   1.4282
     1.4282   1.6719   1.6719   1.6720   1.6720   1.7141   1.7141   1.7141
     1.7141   1.9400   1.9400   2.0917   2.8757   2.8757   3.7873   3.7873
     3.7873   3.7873   3.9091   3.9091   3.9091   3.9091   4.0038   6.2105
     6.2105   6.2106   6.2106   6.4931   6.4931   7.4776   7.8276   8.0012
     8.0013   8.0013

     occupation numbers
     1.0000   1.0000   1.0000   1.0000   1.0000   1.0000   1.0000   1.0000
     1.0000   1.0000   1.0000   1.0000   1.0000   1.0000   1.0000   1.0000
     1.0000   1.0000   1.0000   1.0000   1.0000   1.0000   1.0000   1.0000
[...]

[...]

          k =-0.5000-0.5000 0.0000 ( 16564 PWs)   bands (ev):

   -50.4198 -50.4198 -50.4198 -50.4198 -50.4198 -50.4198 -50.4198 -50.4198
   -50.3420 -50.3420 -50.3420 -50.3420 -50.3064 -50.3064 -50.3064 -50.3064
   -50.2430 -50.2430 -50.2430 -50.2430 -50.2429 -50.2429 -50.2429 -50.2429
   -50.2077 -50.2077 -50.2077 -50.2077 -50.1397 -50.1397 -50.1397 -50.1397
   -50.1271 -50.1271 -50.1271 -50.1271 -50.0746 -50.0746 -50.0746 -50.0746
   -50.0746 -50.0746 -50.0745 -50.0745 -50.0086 -50.0086 -50.0086 -50.0086
    -4.6212  -4.6212  -4.6212  -4.6212  -3.3655  -3.3655  -3.3654  -3.3654
    -2.8569  -2.8569  -2.8569  -2.8569  -2.8569  -2.8569  -2.8569  -2.8569
    -2.2876  -2.2876  -2.2875  -2.2875  -2.2875  -2.2875  -2.2875  -2.2875
    -2.1237  -2.1237  -2.1237  -2.1237  -1.0444  -1.0444  -1.0444  -1.0444
    -0.9811  -0.9811  -0.9810  -0.9810  -0.4217  -0.4217  -0.4217  -0.4217
    -0.2263  -0.2263  -0.2263  -0.2263  -0.2263  -0.2263  -0.2262  -0.2262
     0.0676   0.0676   0.0676   0.0676   0.1043   0.1043   0.1043   0.1043
     0.8984   0.8985   0.8985   0.8985   0.8985   0.8985   0.8985   0.8985
     0.9044   0.9044   0.9044   0.9044   1.5224   1.5224   1.5224   1.5224
     1.5224   1.5224   1.5224   1.5225   1.6122   1.6122   1.6122   1.6122
     2.1806   2.1806   2.1806   2.1806   2.3992   2.3992   2.3993   2.3993
     5.1131   5.1131   5.1131   5.1132   5.1132   5.1132   5.1132   5.1132
     6.5275   6.5275   6.5276   6.5276   7.8621   7.8621   7.8621   7.8621
     7.8621   7.8621

     occupation numbers
     1.0000   1.0000   1.0000   1.0000   1.0000   1.0000   1.0000   1.0000
     1.0000   1.0000   1.0000   1.0000   1.0000   1.0000   1.0000   1.0000
     1.0000   1.0000   1.0000   1.0000   1.0000   1.0000   1.0000   1.0000
     1.0000   1.0000   1.0000   1.0000   1.0000   1.0000   1.0000   1.0000
     1.0000   1.0000   1.0000   1.0000   1.0000   1.0000   1.0000   1.0000
     1.0000   1.0000   1.0000   1.0000   1.0000   1.0000   1.0000   1.0000
     1.0000   1.0000   1.0000   1.0000   1.0000   1.0000   1.0000   1.0000
     1.0000   1.0000   1.0000   1.0000   1.0000   1.0000   1.0000   1.0000
     1.0000   1.0000   1.0000   1.0000   1.0000   1.0000   1.0000   1.0000
     1.0000   1.0000   1.0000   1.0000   1.0000   1.0000   1.0000   1.0000
     1.0000   1.0000   1.0000   1.0000   1.0000   1.0000   1.0000   1.0000
     1.0000   1.0000   1.0000   1.0000   1.0000   1.0000   1.0000   1.0000
     1.0000   1.0000   1.0000   1.0000   1.0000   1.0000   1.0000   1.0000
     1.0000   1.0000   1.0000   1.0000   1.0000   1.0000   1.0000   1.0000
     1.0000   1.0000   1.0000   1.0000   1.0000   1.0000   1.0000   1.0000
     1.0000   1.0000   1.0000   1.0000   1.0000   1.0000   1.0000   1.0000
     0.0000   0.0000   0.0000   0.0000   0.0000   0.0000   0.0000   0.0000
     0.0000   0.0000   0.0000   0.0000   0.0000   0.0000   0.0000   0.0000
     0.0000   0.0000   0.0000   0.0000   0.0000   0.0000   0.0000   0.0000
     0.0000   0.0000

     the Fermi energy is     1.9381 ev

!    total energy              =   -3369.97470012 Ry
     estimated scf accuracy    <          5.3E-09 Ry
     smearing contrib. (-TS)   =      -0.00183837 Ry
     internal energy E=F+TS    =   -3369.97286175 Ry

     The total energy is F=E-TS. E is the sum of the following terms:
     one-electron contribution =   -9382.89906093 Ry
     hartree contribution      =    4736.54863100 Ry
     xc contribution           =    -908.48529891 Ry
     ewald contribution        =    2184.86286709 Ry

     convergence has been achieved in  10 iterations

     negative rho (up, down):  2.829E+00 0.000E+00

     Forces acting on atoms (cartesian axes, Ry/au):

     atom    1 type  1   force =     0.00000000    0.00000000    0.00005847
     atom    2 type  1   force =     0.00000000    0.00000500   -0.00004926
     atom    3 type  1   force =    -0.00000895    0.00000000   -0.00004671
     atom    4 type  1   force =     0.00000248    0.00000248    0.00004638
     atom    5 type  1   force =     0.00000000    0.00000000    0.00004393
     atom    6 type  1   force =     0.00000000   -0.00000500   -0.00004926
     atom    7 type  1   force =     0.00000500    0.00000000   -0.00004926
     atom    8 type  1   force =     0.00000248   -0.00000248    0.00004638
     atom    9 type  1   force =     0.00000000    0.00000000    0.00004393
     atom   10 type  1   force =     0.00000000   -0.00000895   -0.00004671
     atom   11 type  1   force =     0.00000895    0.00000000   -0.00004671
     atom   12 type  1   force =    -0.00000248    0.00000248    0.00004638
     atom   13 type  1   force =     0.00000000    0.00000000    0.00005201
     atom   14 type  1   force =     0.00000000    0.00000895   -0.00004671
     atom   15 type  1   force =    -0.00000500    0.00000000   -0.00004926
     atom   16 type  1   force =    -0.00000248   -0.00000248    0.00004638
     The non-local contrib.  to forces
     atom    1 type  1   force =     0.00000000    0.00000000   -0.08693548
     atom    2 type  1   force =    -0.00000000    0.00000430    0.08694338
     atom    3 type  1   force =    -0.00001071   -0.00000000    0.08694772
     atom    4 type  1   force =     0.00000311    0.00000311   -0.08694075
     atom    5 type  1   force =     0.00000000    0.00000000   -0.08694025
     atom    6 type  1   force =     0.00000000   -0.00000430    0.08694338
     atom    7 type  1   force =     0.00000430   -0.00000000    0.08694338
     atom    8 type  1   force =     0.00000311   -0.00000311   -0.08694075
     atom    9 type  1   force =     0.00000000    0.00000000   -0.08694025
     atom   10 type  1   force =    -0.00000000   -0.00001071    0.08694772
     atom   11 type  1   force =     0.00001071    0.00000000    0.08694772
     atom   12 type  1   force =    -0.00000311    0.00000311   -0.08694075
     atom   13 type  1   force =     0.00000000    0.00000000   -0.08694377
     atom   14 type  1   force =     0.00000000    0.00001071    0.08694772
     atom   15 type  1   force =    -0.00000430    0.00000000    0.08694338
     atom   16 type  1   force =    -0.00000311   -0.00000311   -0.08694075
     The ionic contribution  to forces
     atom    1 type  1   force =    -0.00000000   -0.00000000  -77.71722024
     atom    2 type  1   force =    -0.00000000    0.00046341   77.71749382
     atom    3 type  1   force =    -0.00104284   -0.00000000   77.71739143
     atom    4 type  1   force =     0.00015915    0.00015915  -77.71736161
     atom    5 type  1   force =     0.00000000   -0.00000000  -77.71790264
     atom    6 type  1   force =     0.00000000   -0.00046341   77.71749382
     atom    7 type  1   force =     0.00046341   -0.00000000   77.71749382
     atom    8 type  1   force =     0.00015915   -0.00015915  -77.71736161
     atom    9 type  1   force =    -0.00000000   -0.00000000  -77.71790264
     atom   10 type  1   force =    -0.00000000   -0.00104284   77.71739143
     atom   11 type  1   force =     0.00104284   -0.00000000   77.71739143
     atom   12 type  1   force =    -0.00015915    0.00015915  -77.71736161
     atom   13 type  1   force =     0.00000000    0.00000000  -77.71706908
     atom   14 type  1   force =    -0.00000000    0.00104284   77.71739143
     atom   15 type  1   force =    -0.00046341    0.00000000   77.71749382
     atom   16 type  1   force =    -0.00015915   -0.00015915  -77.71736161
     The local contribution  to forces
     atom    1 type  1   force =    -0.00000000   -0.00000000   77.77565933
     atom    2 type  1   force =     0.00000000   -0.00050542  -77.77588347
     atom    3 type  1   force =     0.00109522   -0.00000000  -77.77579881
     atom    4 type  1   force =    -0.00016785   -0.00016785   77.77579467
     atom    5 type  1   force =    -0.00000000    0.00000000   77.77632730
     atom    6 type  1   force =    -0.00000000    0.00050542  -77.77588347
     atom    7 type  1   force =    -0.00050542    0.00000000  -77.77588347
     atom    8 type  1   force =    -0.00016785    0.00016785   77.77579467
     atom    9 type  1   force =     0.00000000    0.00000000   77.77632730
     atom   10 type  1   force =     0.00000000    0.00109522  -77.77579881
     atom   11 type  1   force =    -0.00109522   -0.00000000  -77.77579881
     atom   12 type  1   force =     0.00016785   -0.00016785   77.77579467
     atom   13 type  1   force =     0.00000000    0.00000000   77.77553830
     atom   14 type  1   force =     0.00000000   -0.00109522  -77.77579881
     atom   15 type  1   force =     0.00050542   -0.00000000  -77.77588347
     atom   16 type  1   force =     0.00016785    0.00016785   77.77579467
     The core correction contribution to forces
     atom    1 type  1   force =     0.00000000    0.00000000    0.02855748
     atom    2 type  1   force =     0.00000000   -0.00000036   -0.02855464
     atom    3 type  1   force =     0.00000039    0.00000000   -0.02855449
     atom    4 type  1   force =     0.00000014    0.00000014    0.02855807
     atom    5 type  1   force =     0.00000000    0.00000000    0.02855933
     atom    6 type  1   force =    -0.00000000    0.00000036   -0.02855464
     atom    7 type  1   force =    -0.00000036    0.00000000   -0.02855464
     atom    8 type  1   force =     0.00000014   -0.00000014    0.02855807
     atom    9 type  1   force =     0.00000000    0.00000000    0.02855933
     atom   10 type  1   force =     0.00000000    0.00000039   -0.02855449
     atom   11 type  1   force =    -0.00000039    0.00000000   -0.02855449
     atom   12 type  1   force =    -0.00000014    0.00000014    0.02855807
     atom   13 type  1   force =     0.00000000    0.00000000    0.02855741
     atom   14 type  1   force =     0.00000000   -0.00000039   -0.02855449
     atom   15 type  1   force =     0.00000036   -0.00000000   -0.02855464
     atom   16 type  1   force =    -0.00000014   -0.00000014    0.02855807
     The Hubbard contrib.    to forces
     atom    1 type  1   force =     0.00000000    0.00000000    0.00000000
     atom    2 type  1   force =     0.00000000    0.00000000    0.00000000
     atom    3 type  1   force =     0.00000000    0.00000000    0.00000000
     atom    4 type  1   force =     0.00000000    0.00000000    0.00000000
     atom    5 type  1   force =     0.00000000    0.00000000    0.00000000
     atom    6 type  1   force =     0.00000000    0.00000000    0.00000000
     atom    7 type  1   force =     0.00000000    0.00000000    0.00000000
     atom    8 type  1   force =     0.00000000    0.00000000    0.00000000
     atom    9 type  1   force =     0.00000000    0.00000000    0.00000000
     atom   10 type  1   force =     0.00000000    0.00000000    0.00000000
     atom   11 type  1   force =     0.00000000    0.00000000    0.00000000
     atom   12 type  1   force =     0.00000000    0.00000000    0.00000000
     atom   13 type  1   force =     0.00000000    0.00000000    0.00000000
     atom   14 type  1   force =     0.00000000    0.00000000    0.00000000
     atom   15 type  1   force =     0.00000000    0.00000000    0.00000000
     atom   16 type  1   force =     0.00000000    0.00000000    0.00000000
     The SCF correction term to forces
     atom    1 type  1   force =     0.00000000    0.00000000    0.00000272
     atom    2 type  1   force =     0.00000000    0.00004307   -0.00004301
     atom    3 type  1   force =    -0.00005100    0.00000000   -0.00002721
     atom    4 type  1   force =     0.00000793    0.00000793    0.00000135
     atom    5 type  1   force =     0.00000000   -0.00000000    0.00000554
     atom    6 type  1   force =    -0.00000000   -0.00004307   -0.00004301
     atom    7 type  1   force =     0.00004307    0.00000000   -0.00004301
     atom    8 type  1   force =     0.00000793   -0.00000793    0.00000135
     atom    9 type  1   force =    -0.00000000   -0.00000000    0.00000554
     atom   10 type  1   force =     0.00000000   -0.00005100   -0.00002721
     atom   11 type  1   force =     0.00005100    0.00000000   -0.00002721
     atom   12 type  1   force =    -0.00000793    0.00000793    0.00000135
     atom   13 type  1   force =     0.00000000   -0.00000000   -0.00002550
     atom   14 type  1   force =     0.00000000    0.00005100   -0.00002721
     atom   15 type  1   force =    -0.00004307    0.00000000   -0.00004301
     atom   16 type  1   force =    -0.00000793   -0.00000793    0.00000135

     Total force =     0.000194     Total SCF correction =     0.000172
     SCF correction compared to forces is large: reduce conv_thr to get better values

     Computing stress (Cartesian axis) and pressure

     negative rho (up, down):  2.829E+00 0.000E+00
          total   stress  (Ry/bohr**3)                   (kbar)     P=      -47.35
  -0.00043593   0.00000000   0.00000000          -64.13        0.00        0.00
   0.00000000  -0.00043593   0.00000000            0.00      -64.13        0.00
   0.00000000   0.00000000  -0.00009372            0.00        0.00      -13.79

     kinetic stress (kbar)  14912.06      0.00      0.00
                                0.00  14912.06      0.00
                                0.00      0.00  15145.14

     local   stress (kbar)-213322.62      0.00      0.00
                                0.00-213322.62      0.00
                                0.00      0.00 223695.30

     nonloc. stress (kbar)   -115.42      0.00      0.00
                                0.00   -115.42      0.00
                                0.00      0.00    -61.39

     hartree stress (kbar) 109207.59     -0.00     -0.00
                               -0.00 109207.59      0.00
                               -0.00      0.00-101636.03

     exc-cor stress (kbar)  11031.19     -0.00     -0.00
                               -0.00  11031.19     -0.00
                               -0.00     -0.00  11023.11

     corecor stress (kbar) -15198.52     -0.00      0.00
                               -0.00 -15198.52      0.00
                                0.00      0.00 -15204.32

     ewald   stress (kbar)  93421.58      0.00     -0.00
                                0.00  93421.58     -0.00
                               -0.00     -0.00-132975.58

     hubbard stress (kbar)      0.00      0.00      0.00
                                0.00      0.00      0.00
                                0.00      0.00      0.00

     DFT-D   stress (kbar)      0.00      0.00      0.00
                                0.00      0.00      0.00
                                0.00      0.00      0.00

     XDM     stress (kbar)      0.00      0.00      0.00
                                0.00      0.00      0.00
                                0.00      0.00      0.00

     dft-nl  stress (kbar)      0.00      0.00      0.00
                                0.00      0.00      0.00
                                0.00      0.00      0.00

     TS-vdW  stress (kbar)      0.00      0.00      0.00
                                0.00      0.00      0.00
                                0.00      0.00      0.00

     Energy error            =      4.2E-05
     Gradient error          =      5.8E-05

     bfgs converged in   6 scf cycles and   5 bfgs steps
     (criteria: energy <  1.0E-04 Ry, force <  1.0E-03 Ry/Bohr)

     End of BFGS Geometry Optimization

     Final energy   =   -3369.9747001208 Ry

     File ./surface.bfgs deleted, as requested
Begin final coordinates

ATOMIC_POSITIONS (angstrom)
Pt            0.0000000000        0.0000000000        0.0583871261
Pt            3.9767700000        1.9883807274        1.9299919729
Pt            1.9884011514        0.0000000000        1.9299860978
Pt            1.9883807478        1.9883807478        0.0583974577
Pt            0.0000000000        3.9767700000        0.0583944361
Pt            3.9767700000        5.9651592726        1.9299919729
Pt            1.9883807274        3.9767700000        1.9299919729
Pt            1.9883807478        5.9651592522        0.0583974577
Pt            3.9767700000        0.0000000000        0.0583944361
Pt            7.9535400000        1.9884011514        1.9299860978
Pt            5.9651388486       -0.0000000000        1.9299860978
Pt            5.9651592522        1.9883807478        0.0583974577
Pt            3.9767700000        3.9767700000        0.0584018882
Pt            7.9535400000        5.9651388486        1.9299860978
Pt            5.9651592726        3.9767700000        1.9299919729
Pt            5.9651592522        5.9651592522        0.0583974577
End final coordinates

     Writing output data file ./surface.save/

     General routines

     Parallel routines

   This run was terminated on:   0:29:39   6Dec2021

   JOB DONE.