     Program PWSCF v.6.7MaX starts on 10Dec2021 at  2:47: 8

     R & G space division:  proc/nbgrp/npool/nimage =      64
     Reading input from ag_surface.100.qe.7655860.2_2_3.in

     Current dimensions of program PWSCF are:
     Max number of different atomic species (ntypx) = 10
     Max number of k-points (npk) =  40000
     Max angular momentum in pseudopotentials (lmaxx) =  3

     Found symmetry operation: I + (  0.0000 -0.5000  0.0000)
     This is a supercell, fractional translations are disabled

     bravais-lattice index     =            8
     lattice parameter (alat)  =      15.7246  a.u.
     unit-cell volume          =   10504.7632 (a.u.)^3
     number of atoms/cell      =           48
     number of atomic types    =            1
     number of electrons       =       912.00
     number of Kohn-Sham states=          547
     kinetic-energy cutoff     =      30.0000  Ry
     charge density cutoff     =     300.0000  Ry
     scf convergence threshold =      1.0E-06
     mixing beta               =       0.3000
     number of iterations used =            8  plain     mixing
     energy convergence thresh.=      1.0E-04
     force convergence thresh. =      1.0E-03
     Exchange-correlation=  SLA  PW   PBX  PBC
                           (   1   4   3   4   0   0   0)
     nstep                     =           50

     celldm(1)=  15.724600  celldm(2)=   1.000000  celldm(3)=   2.701764
     celldm(4)=   0.000000  celldm(5)=   0.000000  celldm(6)=   0.000000

     crystal axes: (cart. coord. in units of alat)
               a(1) = (   1.000000   0.000000   0.000000 )
               a(2) = (   0.000000   1.000000   0.000000 )
               a(3) = (   0.000000   0.000000   2.701764 )

     reciprocal axes: (cart. coord. in units 2 pi/alat)
               b(1) = (  1.000000  0.000000  0.000000 )
               b(2) = (  0.000000  1.000000  0.000000 )
               b(3) = (  0.000000  0.000000  0.370129 )

     PseudoPot. # 1 for Ag read from file:
     /expanse/lustre/projects/csd622/tpascal/nano110/qe/pseudo/ag_pbe_v1.4.uspp.F.UPF
     MD5 check sum: d66d668201baa78d5eb5b04ef7011058
     Pseudo is Ultrasoft + core correction, Zval = 19.0
     Generated by new atomic code, or converted to UPF format
     Using radial grid of  887 points,  6 beta functions with:
                l(1) =   0
                l(2) =   0
                l(3) =   1
                l(4) =   1
                l(5) =   2
                l(6) =   2
     Q(r) pseudized with  6 coefficients,  rinner =    1.300   1.300   1.300
                                                       1.300   1.300

     atomic species   valence    mass     pseudopotential
        Ag            19.00   107.86820     Ag( 1.00)

      8 Sym. Ops. (no inversion) found

                                    s                        frac. trans.

      isym =  1     identity

 cryst.   s( 1) = (     1          0          0      )
                  (     0          1          0      )
                  (     0          0          1      )

 cart.    s( 1) = (  1.0000000  0.0000000  0.0000000 )
                  (  0.0000000  1.0000000  0.0000000 )
                  (  0.0000000  0.0000000  1.0000000 )

      isym =  2     180 deg rotation - cart. axis [0,0,1]

[...]

      isym =  4      90 deg rotation - cart. axis [0,0,1]

[...]

      isym =  5     inv. 180 deg rotation - cart. axis [0,1,0]

[...]

      isym =  8     inv. 180 deg rotation - cart. axis [1,-1,0]

 cryst.   s( 8) = (     0          1          0      )
                  (     1          0          0      )
                  (     0          0          1      )

 cart.    s( 8) = (  0.0000000  1.0000000  0.0000000 )
                  (  1.0000000  0.0000000  0.0000000 )
                  (  0.0000000  0.0000000  1.0000000 )

     point group C_4v (4mm)
     there are  5 classes
     the character table:

       E     2C4   C2    2s_v  2s_d
A_1    1.00  1.00  1.00  1.00  1.00
A_2    1.00  1.00  1.00 -1.00 -1.00
B_1    1.00 -1.00  1.00  1.00 -1.00
B_2    1.00 -1.00  1.00 -1.00  1.00
E      2.00  0.00 -2.00  0.00  0.00

     the symmetry operations in each class and the name of the first element:

     E        1
          identity
     2C4      3    4
           90 deg rotation - cart. axis [0,0,-1]
     C2       2
          180 deg rotation - cart. axis [0,0,1]
     2s_v     5    6
          inv. 180 deg rotation - cart. axis [0,1,0]
     2s_d     7    8
          inv. 180 deg rotation - cart. axis [1,1,0]

   Cartesian axes

     site n.     atom                  positions (alat units)
         1           Ag  tau(   1) = (   0.0000000   0.0000000   0.0000000  )
         2           Ag  tau(   2) = (   0.0000000   0.0000000   0.5000000  )
         3           Ag  tau(   3) = (   0.0000000   0.0000000   1.0000000  )
         4           Ag  tau(   4) = (   0.0000000   0.5000000   0.0000000  )
         5           Ag  tau(   5) = (   0.0000000   0.5000000   0.5000000  )
         6           Ag  tau(   6) = (   0.0000000   0.5000000   1.0000000  )
         7           Ag  tau(   7) = (   0.5000000   0.0000000   0.0000000  )
         8           Ag  tau(   8) = (   0.5000000   0.0000000   0.5000000  )
         9           Ag  tau(   9) = (   0.5000000   0.0000000   1.0000000  )
        10           Ag  tau(  10) = (   0.5000000   0.5000000   0.0000000  )
        11           Ag  tau(  11) = (   0.5000000   0.5000000   0.5000000  )
        12           Ag  tau(  12) = (   0.5000000   0.5000000   1.0000000  )
        13           Ag  tau(  13) = (   0.0000000   0.2500000   0.2500000  )
        14           Ag  tau(  14) = (   0.0000000   0.2500000   0.7500000  )
        15           Ag  tau(  15) = (   0.0000000   0.2500000   1.2500000  )
        16           Ag  tau(  16) = (   0.0000000   0.7500000   0.2500000  )
        17           Ag  tau(  17) = (   0.0000000   0.7500000   0.7500000  )
        18           Ag  tau(  18) = (   0.0000000   0.7500000   1.2500000  )
        19           Ag  tau(  19) = (   0.5000000   0.2500000   0.2500000  )
        20           Ag  tau(  20) = (   0.5000000   0.2500000   0.7500000  )
        21           Ag  tau(  21) = (   0.5000000   0.2500000   1.2500000  )
        22           Ag  tau(  22) = (   0.5000000   0.7500000   0.2500000  )
        23           Ag  tau(  23) = (   0.5000000   0.7500000   0.7500000  )
        24           Ag  tau(  24) = (   0.5000000   0.7500000   1.2500000  )
        25           Ag  tau(  25) = (   0.2500000   0.0000000   0.2500000  )
        26           Ag  tau(  26) = (   0.2500000   0.0000000   0.7500000  )
        27           Ag  tau(  27) = (   0.2500000   0.0000000   1.2500000  )
        28           Ag  tau(  28) = (   0.2500000   0.5000000   0.2500000  )
        29           Ag  tau(  29) = (   0.2500000   0.5000000   0.7500000  )
        30           Ag  tau(  30) = (   0.2500000   0.5000000   1.2500000  )
        31           Ag  tau(  31) = (   0.7500000   0.0000000   0.2500000  )
        32           Ag  tau(  32) = (   0.7500000   0.0000000   0.7500000  )
        33           Ag  tau(  33) = (   0.7500000   0.0000000   1.2500000  )
        34           Ag  tau(  34) = (   0.7500000   0.5000000   0.2500000  )
        35           Ag  tau(  35) = (   0.7500000   0.5000000   0.7500000  )
        36           Ag  tau(  36) = (   0.7500000   0.5000000   1.2500000  )
        37           Ag  tau(  37) = (   0.2500000   0.2500000   0.0000000  )
        38           Ag  tau(  38) = (   0.2500000   0.2500000   0.5000000  )
        39           Ag  tau(  39) = (   0.2500000   0.2500000   1.0000000  )
        40           Ag  tau(  40) = (   0.2500000   0.7500000   0.0000000  )
        41           Ag  tau(  41) = (   0.2500000   0.7500000   0.5000000  )
        42           Ag  tau(  42) = (   0.2500000   0.7500000   1.0000000  )
        43           Ag  tau(  43) = (   0.7500000   0.2500000   0.0000000  )
        44           Ag  tau(  44) = (   0.7500000   0.2500000   0.5000000  )
        45           Ag  tau(  45) = (   0.7500000   0.2500000   1.0000000  )
        46           Ag  tau(  46) = (   0.7500000   0.7500000   0.0000000  )
        47           Ag  tau(  47) = (   0.7500000   0.7500000   0.5000000  )
        48           Ag  tau(  48) = (   0.7500000   0.7500000   1.0000000  )

   Crystallographic axes

     site n.     atom                  positions (cryst. coord.)
         1           Ag  tau(   1) = (  0.0000000  0.0000000  0.0000000  )
         2           Ag  tau(   2) = (  0.0000000  0.0000000  0.1850643  )
         3           Ag  tau(   3) = (  0.0000000  0.0000000  0.3701285  )
         4           Ag  tau(   4) = (  0.0000000  0.5000000  0.0000000  )
         5           Ag  tau(   5) = (  0.0000000  0.5000000  0.1850643  )
         6           Ag  tau(   6) = (  0.0000000  0.5000000  0.3701285  )
         7           Ag  tau(   7) = (  0.5000000  0.0000000  0.0000000  )
         8           Ag  tau(   8) = (  0.5000000  0.0000000  0.1850643  )
         9           Ag  tau(   9) = (  0.5000000  0.0000000  0.3701285  )
        10           Ag  tau(  10) = (  0.5000000  0.5000000  0.0000000  )
        11           Ag  tau(  11) = (  0.5000000  0.5000000  0.1850643  )
        12           Ag  tau(  12) = (  0.5000000  0.5000000  0.3701285  )
        13           Ag  tau(  13) = (  0.0000000  0.2500000  0.0925321  )
        14           Ag  tau(  14) = (  0.0000000  0.2500000  0.2775964  )
        15           Ag  tau(  15) = (  0.0000000  0.2500000  0.4626607  )
        16           Ag  tau(  16) = (  0.0000000  0.7500000  0.0925321  )
        17           Ag  tau(  17) = (  0.0000000  0.7500000  0.2775964  )
        18           Ag  tau(  18) = (  0.0000000  0.7500000  0.4626607  )
        19           Ag  tau(  19) = (  0.5000000  0.2500000  0.0925321  )
        20           Ag  tau(  20) = (  0.5000000  0.2500000  0.2775964  )
        21           Ag  tau(  21) = (  0.5000000  0.2500000  0.4626607  )
        22           Ag  tau(  22) = (  0.5000000  0.7500000  0.0925321  )
        23           Ag  tau(  23) = (  0.5000000  0.7500000  0.2775964  )
        24           Ag  tau(  24) = (  0.5000000  0.7500000  0.4626607  )
        25           Ag  tau(  25) = (  0.2500000  0.0000000  0.0925321  )
        26           Ag  tau(  26) = (  0.2500000  0.0000000  0.2775964  )
        27           Ag  tau(  27) = (  0.2500000  0.0000000  0.4626607  )
        28           Ag  tau(  28) = (  0.2500000  0.5000000  0.0925321  )
        29           Ag  tau(  29) = (  0.2500000  0.5000000  0.2775964  )
        30           Ag  tau(  30) = (  0.2500000  0.5000000  0.4626607  )
        31           Ag  tau(  31) = (  0.7500000  0.0000000  0.0925321  )
        32           Ag  tau(  32) = (  0.7500000  0.0000000  0.2775964  )
        33           Ag  tau(  33) = (  0.7500000  0.0000000  0.4626607  )
        34           Ag  tau(  34) = (  0.7500000  0.5000000  0.0925321  )
        35           Ag  tau(  35) = (  0.7500000  0.5000000  0.2775964  )
        36           Ag  tau(  36) = (  0.7500000  0.5000000  0.4626607  )
[...]
     atom    9 type  1   force =    -0.00000000    0.00000000    0.00000003
     atom   10 type  1   force =     0.00000000    0.00000000    0.00139093
     atom   11 type  1   force =    -0.00000000   -0.00000000    0.00012407
     atom   12 type  1   force =     0.00000000    0.00000000    0.00000003
     atom   13 type  1   force =     0.00000000    0.00000000   -0.00000084
     atom   14 type  1   force =     0.00000000    0.00000000   -0.00012452
     atom   15 type  1   force =     0.00000000    0.00000000   -0.00139072
     atom   16 type  1   force =     0.00000000   -0.00000000   -0.00000084
     atom   17 type  1   force =     0.00000000   -0.00000000   -0.00012452
     atom   18 type  1   force =     0.00000000   -0.00000000   -0.00139072
     atom   19 type  1   force =     0.00000000    0.00000000   -0.00000084
     atom   20 type  1   force =     0.00000000    0.00000000   -0.00012452
     atom   21 type  1   force =     0.00000000    0.00000000   -0.00139072
     atom   22 type  1   force =    -0.00000000   -0.00000000   -0.00000084
     atom   23 type  1   force =     0.00000000   -0.00000000   -0.00012452
     atom   24 type  1   force =    -0.00000000   -0.00000000   -0.00139072
     atom   25 type  1   force =     0.00000000    0.00000000   -0.00000084
     atom   26 type  1   force =     0.00000000    0.00000000   -0.00012452
     atom   27 type  1   force =     0.00000000    0.00000000   -0.00139072
     atom   28 type  1   force =     0.00000000    0.00000000   -0.00000084
     atom   29 type  1   force =     0.00000000    0.00000000   -0.00012452
     atom   30 type  1   force =     0.00000000    0.00000000   -0.00139072
     atom   31 type  1   force =    -0.00000000    0.00000000   -0.00000084
     atom   32 type  1   force =    -0.00000000    0.00000000   -0.00012452
     atom   33 type  1   force =    -0.00000000    0.00000000   -0.00139072
     atom   34 type  1   force =    -0.00000000    0.00000000   -0.00000084
     atom   35 type  1   force =    -0.00000000    0.00000000   -0.00012452
     atom   36 type  1   force =    -0.00000000   -0.00000000   -0.00139072
     atom   37 type  1   force =    -0.00000000   -0.00000000    0.00138998
     atom   38 type  1   force =     0.00000000    0.00000000    0.00012379
     atom   39 type  1   force =     0.00000000    0.00000000    0.00000191
     atom   40 type  1   force =    -0.00000000    0.00000000    0.00138998
     atom   41 type  1   force =     0.00000000   -0.00000000    0.00012379
     atom   42 type  1   force =     0.00000000   -0.00000000    0.00000191
     atom   43 type  1   force =     0.00000000   -0.00000000    0.00138998
     atom   44 type  1   force =    -0.00000000    0.00000000    0.00012379
     atom   45 type  1   force =    -0.00000000    0.00000000    0.00000191
     atom   46 type  1   force =     0.00000000    0.00000000    0.00138998
     atom   47 type  1   force =    -0.00000000   -0.00000000    0.00012379
     atom   48 type  1   force =    -0.00000000   -0.00000000    0.00000191
     The Hubbard contrib.    to forces
     atom    1 type  1   force =     0.00000000    0.00000000    0.00000000
     atom    2 type  1   force =     0.00000000    0.00000000    0.00000000
     atom    3 type  1   force =     0.00000000    0.00000000    0.00000000
     atom    4 type  1   force =     0.00000000    0.00000000    0.00000000
     atom    5 type  1   force =     0.00000000    0.00000000    0.00000000
     atom    6 type  1   force =     0.00000000    0.00000000    0.00000000
     atom    7 type  1   force =     0.00000000    0.00000000    0.00000000
     atom    8 type  1   force =     0.00000000    0.00000000    0.00000000
     atom    9 type  1   force =     0.00000000    0.00000000    0.00000000
     atom   10 type  1   force =     0.00000000    0.00000000    0.00000000
     atom   11 type  1   force =     0.00000000    0.00000000    0.00000000
     atom   12 type  1   force =     0.00000000    0.00000000    0.00000000
     atom   13 type  1   force =     0.00000000    0.00000000    0.00000000
     atom   14 type  1   force =     0.00000000    0.00000000    0.00000000
     atom   15 type  1   force =     0.00000000    0.00000000    0.00000000
     atom   16 type  1   force =     0.00000000    0.00000000    0.00000000
     atom   17 type  1   force =     0.00000000    0.00000000    0.00000000
     atom   18 type  1   force =     0.00000000    0.00000000    0.00000000
     atom   19 type  1   force =     0.00000000    0.00000000    0.00000000
     atom   20 type  1   force =     0.00000000    0.00000000    0.00000000
     atom   21 type  1   force =     0.00000000    0.00000000    0.00000000
     atom   22 type  1   force =     0.00000000    0.00000000    0.00000000
     atom   23 type  1   force =     0.00000000    0.00000000    0.00000000
     atom   24 type  1   force =     0.00000000    0.00000000    0.00000000
     atom   25 type  1   force =     0.00000000    0.00000000    0.00000000
     atom   26 type  1   force =     0.00000000    0.00000000    0.00000000
     atom   27 type  1   force =     0.00000000    0.00000000    0.00000000
     atom   28 type  1   force =     0.00000000    0.00000000    0.00000000
     atom   29 type  1   force =     0.00000000    0.00000000    0.00000000
     atom   30 type  1   force =     0.00000000    0.00000000    0.00000000
     atom   31 type  1   force =     0.00000000    0.00000000    0.00000000
     atom   32 type  1   force =     0.00000000    0.00000000    0.00000000
     atom   33 type  1   force =     0.00000000    0.00000000    0.00000000
     atom   34 type  1   force =     0.00000000    0.00000000    0.00000000
     atom   35 type  1   force =     0.00000000    0.00000000    0.00000000
     atom   36 type  1   force =     0.00000000    0.00000000    0.00000000
     atom   37 type  1   force =     0.00000000    0.00000000    0.00000000
     atom   38 type  1   force =     0.00000000    0.00000000    0.00000000
     atom   39 type  1   force =     0.00000000    0.00000000    0.00000000
     atom   40 type  1   force =     0.00000000    0.00000000    0.00000000
     atom   41 type  1   force =     0.00000000    0.00000000    0.00000000
     atom   42 type  1   force =     0.00000000    0.00000000    0.00000000
     atom   43 type  1   force =     0.00000000    0.00000000    0.00000000
     atom   44 type  1   force =     0.00000000    0.00000000    0.00000000
     atom   45 type  1   force =     0.00000000    0.00000000    0.00000000
     atom   46 type  1   force =     0.00000000    0.00000000    0.00000000
     atom   47 type  1   force =     0.00000000    0.00000000    0.00000000
     atom   48 type  1   force =     0.00000000    0.00000000    0.00000000
     The SCF correction term to forces
     atom    1 type  1   force =     0.00000000   -0.00000000   -0.00002336
     atom    2 type  1   force =     0.00000000   -0.00000000   -0.00006548
     atom    3 type  1   force =     0.00000000   -0.00000000    0.00001184
     atom    4 type  1   force =    -0.00000000   -0.00000000   -0.00002333
     atom    5 type  1   force =     0.00000000    0.00000000   -0.00006547
     atom    6 type  1   force =    -0.00000000   -0.00000000    0.00001185
     atom    7 type  1   force =    -0.00000000    0.00000000   -0.00002333
     atom    8 type  1   force =     0.00000000   -0.00000000   -0.00006547
     atom    9 type  1   force =    -0.00000000   -0.00000000    0.00001185
     atom   10 type  1   force =    -0.00000000   -0.00000000   -0.00002331
     atom   11 type  1   force =    -0.00000000    0.00000000   -0.00006547
     atom   12 type  1   force =    -0.00000000   -0.00000000    0.00001182
     atom   13 type  1   force =     0.00000000    0.00000005   -0.00002770
     atom   14 type  1   force =    -0.00000000    0.00000006    0.00005844
     atom   15 type  1   force =    -0.00000000    0.00000009    0.00003495
     atom   16 type  1   force =     0.00000000   -0.00000005   -0.00002770
     atom   17 type  1   force =    -0.00000000   -0.00000006    0.00005844
     atom   18 type  1   force =     0.00000000   -0.00000009    0.00003495
     atom   19 type  1   force =    -0.00000000    0.00000008   -0.00002768
     atom   20 type  1   force =    -0.00000000    0.00000009    0.00005846
     atom   21 type  1   force =     0.00000000    0.00000006    0.00003492
     atom   22 type  1   force =    -0.00000000   -0.00000008   -0.00002768
     atom   23 type  1   force =     0.00000000   -0.00000009    0.00005846
     atom   24 type  1   force =    -0.00000000   -0.00000006    0.00003492
     atom   25 type  1   force =     0.00000005   -0.00000000   -0.00002770
     atom   26 type  1   force =     0.00000006    0.00000000    0.00005844
     atom   27 type  1   force =     0.00000009   -0.00000000    0.00003495
     atom   28 type  1   force =     0.00000008    0.00000000   -0.00002768
     atom   29 type  1   force =     0.00000009   -0.00000000    0.00005846
     atom   30 type  1   force =     0.00000006   -0.00000000    0.00003492
     atom   31 type  1   force =    -0.00000005   -0.00000000   -0.00002770
     atom   32 type  1   force =    -0.00000006    0.00000000    0.00005844
     atom   33 type  1   force =    -0.00000009   -0.00000000    0.00003495
     atom   34 type  1   force =    -0.00000008    0.00000000   -0.00002768
     atom   35 type  1   force =    -0.00000009   -0.00000000    0.00005846
     atom   36 type  1   force =    -0.00000006   -0.00000000    0.00003492
     atom   37 type  1   force =     0.00000004    0.00000004   -0.00002359
     atom   38 type  1   force =     0.00000006    0.00000006   -0.00006525
     atom   39 type  1   force =     0.00000008    0.00000008    0.00001207
     atom   40 type  1   force =     0.00000004   -0.00000004   -0.00002359
     atom   41 type  1   force =     0.00000006   -0.00000006   -0.00006525
     atom   42 type  1   force =     0.00000008   -0.00000008    0.00001207
     atom   43 type  1   force =    -0.00000004    0.00000004   -0.00002359
     atom   44 type  1   force =    -0.00000006    0.00000006   -0.00006525
     atom   45 type  1   force =    -0.00000008    0.00000008    0.00001207
     atom   46 type  1   force =    -0.00000004   -0.00000004   -0.00002359
     atom   47 type  1   force =    -0.00000006   -0.00000006   -0.00006525
     atom   48 type  1   force =    -0.00000008   -0.00000008    0.00001207

     Total force =     0.003967     Total SCF correction =     0.000288

     Computing stress (Cartesian axis) and pressure

     negative rho (up, down):  5.929E-03 0.000E+00
          total   stress  (Ry/bohr**3)                   (kbar)     P=      -61.43
  -0.00043986   0.00000000   0.00000000          -64.71        0.00        0.00
   0.00000000  -0.00043986   0.00000000            0.00      -64.71        0.00
   0.00000000   0.00000000  -0.00037316            0.00        0.00      -54.89

     kinetic stress (kbar)  30034.90      0.00      0.00
                                0.00  30034.90      0.00
                                0.00      0.00  30084.26

     local   stress (kbar)-860768.54      0.00      0.00
                                0.00-860768.54      0.00
                                0.00      0.00 864756.88

     nonloc. stress (kbar)   3527.62      0.00      0.00
                                0.00   3527.62      0.00
                                0.00      0.00   3514.80

     hartree stress (kbar) 444483.40     -0.00      0.00
                               -0.00 444483.40      0.00
                                0.00      0.00-410367.60

     exc-cor stress (kbar)  -5416.30     -0.00     -0.00
                               -0.00  -5416.30     -0.00
                               -0.00     -0.00  -5419.90

     corecor stress (kbar)   -732.67      0.00      0.00
                                0.00   -732.67     -0.00
                                0.00     -0.00   -732.64

     ewald   stress (kbar) 388806.88     -0.00     -0.00
                               -0.00 388806.88     -0.00
                               -0.00     -0.00-481890.70

     hubbard stress (kbar)      0.00      0.00      0.00
                                0.00      0.00      0.00
                                0.00      0.00      0.00

     DFT-D   stress (kbar)      0.00      0.00      0.00
                                0.00      0.00      0.00
                                0.00      0.00      0.00

     XDM     stress (kbar)      0.00      0.00      0.00
                                0.00      0.00      0.00
                                0.00      0.00      0.00

     dft-nl  stress (kbar)      0.00      0.00      0.00
                                0.00      0.00      0.00
                                0.00      0.00      0.00

     TS-vdW  stress (kbar)      0.00      0.00      0.00
                                0.00      0.00      0.00
                                0.00      0.00      0.00

     Energy error            =      8.5E-05
     Gradient error          =      8.4E-04

     bfgs converged in  14 scf cycles and  13 bfgs steps
     (criteria: energy <  1.0E-04 Ry, force <  1.0E-03 Ry/Bohr)

     End of BFGS Geometry Optimization

     Final energy   =  -14188.9805650317 Ry

     File ./surface.bfgs deleted, as requested
Begin final coordinates

ATOMIC_POSITIONS (angstrom)
Ag            0.0000000000        0.0000000000        0.0498558751
Ag            0.0000000000        0.0000000000        4.1650869045
Ag            0.0000000000        0.0000000000        8.3124770533
Ag            0.0000000000        4.1605500000        0.0498592540
Ag            0.0000000000        4.1605500000        4.1650865064
Ag            0.0000000000        4.1605500000        8.3124762635
Ag            4.1605500000        0.0000000000        0.0498592540
Ag            4.1605500000        0.0000000000        4.1650865064
Ag            4.1605500000        0.0000000000        8.3124762635
Ag            4.1605500000        4.1605500000        0.0498627239
Ag            4.1605500000        4.1605500000        4.1650862136
Ag            4.1605500000        4.1605500000        8.3124755782
Ag            0.0000000000        2.0802761995        2.0888154145
Ag           -0.0000000000        2.0802760311        6.2361608056
Ag           -0.0000000000        2.0802756324       10.3517662170
Ag           -0.0000000000        6.2408238005        2.0888154145
Ag            0.0000000000        6.2408239689        6.2361608056
Ag           -0.0000000000        6.2408243676       10.3517662170
Ag            4.1605500000        2.0802761809        2.0888157926
Ag            4.1605500000        2.0802760973        6.2361593662
Ag            4.1605500000        2.0802757578       10.3517659837
Ag            4.1605500000        6.2408238191        2.0888157926
Ag            4.1605500000        6.2408239027        6.2361593662
Ag            4.1605500000        6.2408242422       10.3517659837
Ag            2.0802761995       -0.0000000000        2.0888154145
Ag            2.0802760311        0.0000000000        6.2361608056
Ag            2.0802756324       -0.0000000000       10.3517662170
Ag            2.0802761809        4.1605500000        2.0888157926
Ag            2.0802760973        4.1605500000        6.2361593662
Ag            2.0802757578        4.1605500000       10.3517659837
Ag            6.2408238005        0.0000000000        2.0888154145
Ag            6.2408239689       -0.0000000000        6.2361608056
Ag            6.2408243676       -0.0000000000       10.3517662170
Ag            6.2408238191        4.1605500000        2.0888157926
Ag            6.2408239027        4.1605500000        6.2361593662
Ag            6.2408242422        4.1605500000       10.3517659837
Ag            2.0802748652        2.0802748652        0.0496843990
Ag            2.0802764447        2.0802764447        4.1649760408
Ag            2.0802761775        2.0802761775        8.3126838815
Ag            2.0802748652        6.2408251348        0.0496843990
Ag            2.0802764447        6.2408235553        4.1649760408
Ag            2.0802761775        6.2408238225        8.3126838815
Ag            6.2408251348        2.0802748652        0.0496843990
Ag            6.2408235553        2.0802764447        4.1649760408
Ag            6.2408238225        2.0802761775        8.3126838815
Ag            6.2408251348        6.2408251348        0.0496843990
Ag            6.2408235553        6.2408235553        4.1649760408
Ag            6.2408238225        6.2408238225        8.3126838815
End final coordinates

     Writing output data file ./surface.save/

     General routines

     Parallel routines

   This run was terminated on:   3:29:15  10Dec2021

   JOB DONE.