     Program PWSCF v.6.7MaX starts on  6Dec2021 at 19:10:38

     R & G space division:  proc/nbgrp/npool/nimage =      32
     Reading input from pt_surface.110.qe.in

     Current dimensions of program PWSCF are:
     Max number of different atomic species (ntypx) = 10
     Max number of k-points (npk) =  40000
     Max angular momentum in pseudopotentials (lmaxx) =  3

     Found symmetry operation: I + (  0.0000  0.3333  0.0000)
     This is a supercell, fractional translations are disabled

     bravais-lattice index     =            8
     lattice parameter (alat)  =      22.5450  a.u.
     unit-cell volume          =    8701.6544 (a.u.)^3
     number of atoms/cell      =           18
     number of atomic types    =            1
     number of electrons       =       288.00
     number of Kohn-Sham states=          173
     kinetic-energy cutoff     =      30.0000  Ry
     charge density cutoff     =     300.0000  Ry
     scf convergence threshold =      1.0E-06
     mixing beta               =       0.3000
     number of iterations used =            8  plain     mixing
     energy convergence thresh.=      1.0E-04
     force convergence thresh. =      1.0E-03
     Exchange-correlation=  SLA  PW   PBX  PBC
                           (   1   4   3   4   0   0   0)
     nstep                     =           50

     celldm(1)=  22.545018  celldm(2)=   0.707107  celldm(3)=   1.073903
     celldm(4)=   0.000000  celldm(5)=   0.000000  celldm(6)=   0.000000

     crystal axes: (cart. coord. in units of alat)
               a(1) = (   1.000000   0.000000   0.000000 )
               a(2) = (   0.000000   0.707107   0.000000 )
               a(3) = (   0.000000   0.000000   1.073903 )

     reciprocal axes: (cart. coord. in units 2 pi/alat)
               b(1) = (  1.000000  0.000000  0.000000 )
               b(2) = (  0.000000  1.414214  0.000000 )
               b(3) = (  0.000000  0.000000  0.931182 )

     PseudoPot. # 1 for Pt read from file:
     /expanse/lustre/projects/csd622/tpascal/nano110/qe/pseudo/pt_pbe_v1.4.uspp.F.UPF
     MD5 check sum: f09d6de1a584b5a045c4fc126da2d0c4
     Pseudo is Ultrasoft + core correction, Zval = 16.0
     Generated by new atomic code, or converted to UPF format
     Using radial grid of  985 points,  6 beta functions with:
                l(1) =   0
                l(2) =   0
                l(3) =   1
                l(4) =   1
                l(5) =   2
                l(6) =   2
     Q(r) pseudized with  8 coefficients,  rinner =    1.300   1.300   1.300
                                                       1.300   1.300

     atomic species   valence    mass     pseudopotential
        Pt            16.00   195.08400     Pt( 1.00)

      4 Sym. Ops. (no inversion) found

                                    s                        frac. trans.

      isym =  1     identity

 cryst.   s( 1) = (     1          0          0      )
                  (     0          1          0      )
                  (     0          0          1      )

 cart.    s( 1) = (  1.0000000  0.0000000  0.0000000 )
                  (  0.0000000  1.0000000  0.0000000 )
                  (  0.0000000  0.0000000  1.0000000 )

      isym =  2     180 deg rotation - cart. axis [0,0,1]

[...]

      isym =  3     inv. 180 deg rotation - cart. axis [0,1,0]

[...]

      isym =  4     inv. 180 deg rotation - cart. axis [1,0,0]

 cryst.   s( 4) = (    -1          0          0      )
                  (     0          1          0      )
                  (     0          0          1      )

 cart.    s( 4) = ( -1.0000000  0.0000000  0.0000000 )
                  (  0.0000000  1.0000000  0.0000000 )
                  (  0.0000000  0.0000000  1.0000000 )

     point group C_2v (mm2)
     there are  4 classes
     the character table:

       E     C2    s_v   s_v'
A_1    1.00  1.00  1.00  1.00
A_2    1.00  1.00 -1.00 -1.00
B_1    1.00 -1.00  1.00 -1.00
B_2    1.00 -1.00 -1.00  1.00

     the symmetry operations in each class and the name of the first element:

     E        1
          identity
     C2       2
          180 deg rotation - cart. axis [0,0,1]
     s_v      4
          inv. 180 deg rotation - cart. axis [1,0,0]
     s_v'     3
          inv. 180 deg rotation - cart. axis [0,1,0]

   Cartesian axes

     site n.     atom                  positions (alat units)
         1           Pt  tau(   1) = (   0.0000000   0.0000000   0.0000000  )
         2           Pt  tau(   2) = (   0.1666667   0.1178511   0.1178511  )
         3           Pt  tau(   3) = (   0.0000000   0.2357023   0.0000000  )
         4           Pt  tau(   4) = (   0.1666667   0.3535534   0.1178511  )
         5           Pt  tau(   5) = (   0.0000000   0.4714045   0.0000000  )
         6           Pt  tau(   6) = (   0.1666667   0.5892556   0.1178511  )
         7           Pt  tau(   7) = (   0.3333333   0.0000000   0.0000000  )
         8           Pt  tau(   8) = (   0.5000000   0.1178511   0.1178511  )
         9           Pt  tau(   9) = (   0.3333333   0.2357023   0.0000000  )
        10           Pt  tau(  10) = (   0.5000000   0.3535534   0.1178511  )
        11           Pt  tau(  11) = (   0.3333333   0.4714045   0.0000000  )
        12           Pt  tau(  12) = (   0.5000000   0.5892556   0.1178511  )
        13           Pt  tau(  13) = (   0.6666667   0.0000000   0.0000000  )
        14           Pt  tau(  14) = (   0.8333333   0.1178511   0.1178511  )
        15           Pt  tau(  15) = (   0.6666667   0.2357023   0.0000000  )
        16           Pt  tau(  16) = (   0.8333333   0.3535534   0.1178511  )
        17           Pt  tau(  17) = (   0.6666667   0.4714045   0.0000000  )
        18           Pt  tau(  18) = (   0.8333333   0.5892556   0.1178511  )

   Crystallographic axes

     site n.     atom                  positions (cryst. coord.)
         1           Pt  tau(   1) = (  0.0000000  0.0000000  0.0000000  )
         2           Pt  tau(   2) = (  0.1666667  0.1666667  0.1097409  )
         3           Pt  tau(   3) = (  0.0000000  0.3333335  0.0000000  )
         4           Pt  tau(   4) = (  0.1666667  0.5000002  0.1097409  )
         5           Pt  tau(   5) = (  0.0000000  0.6666669  0.0000000  )
         6           Pt  tau(   6) = (  0.1666667  0.8333336  0.1097409  )
         7           Pt  tau(   7) = (  0.3333333  0.0000000  0.0000000  )
         8           Pt  tau(   8) = (  0.5000000  0.1666667  0.1097409  )
         9           Pt  tau(   9) = (  0.3333333  0.3333335  0.0000000  )
        10           Pt  tau(  10) = (  0.5000000  0.5000002  0.1097409  )
        11           Pt  tau(  11) = (  0.3333333  0.6666669  0.0000000  )
        12           Pt  tau(  12) = (  0.5000000  0.8333336  0.1097409  )
        13           Pt  tau(  13) = (  0.6666667  0.0000000  0.0000000  )
        14           Pt  tau(  14) = (  0.8333333  0.1666667  0.1097409  )
        15           Pt  tau(  15) = (  0.6666667  0.3333335  0.0000000  )
        16           Pt  tau(  16) = (  0.8333333  0.5000002  0.1097409  )
        17           Pt  tau(  17) = (  0.6666667  0.6666669  0.0000000  )
        18           Pt  tau(  18) = (  0.8333333  0.8333336  0.1097409  )

     number of k points=     9  Gaussian smearing, width (Ry)=  0.0030
                       cart. coord. in units 2pi/alat
        k(    1) = (   0.0000000   0.0000000   0.0000000), wk =   0.1250000
        k(    2) = (   0.0000000   0.3535535   0.0000000), wk =   0.2500000
        k(    3) = (   0.0000000  -0.7071070   0.0000000), wk =   0.1250000
        k(    4) = (   0.2500000   0.0000000   0.0000000), wk =   0.2500000
        k(    5) = (   0.2500000   0.3535535   0.0000000), wk =   0.5000000
        k(    6) = (   0.2500000  -0.7071070   0.0000000), wk =   0.2500000
        k(    7) = (  -0.5000000   0.0000000   0.0000000), wk =   0.1250000
        k(    8) = (  -0.5000000   0.3535535   0.0000000), wk =   0.2500000
        k(    9) = (  -0.5000000  -0.7071070   0.0000000), wk =   0.1250000

                       cryst. coord.
        k(    1) = (   0.0000000   0.0000000   0.0000000), wk =   0.1250000
        k(    2) = (   0.0000000   0.2500000   0.0000000), wk =   0.2500000
        k(    3) = (   0.0000000  -0.5000000   0.0000000), wk =   0.1250000
        k(    4) = (   0.2500000   0.0000000   0.0000000), wk =   0.2500000
        k(    5) = (   0.2500000   0.2500000   0.0000000), wk =   0.5000000
        k(    6) = (   0.2500000  -0.5000000   0.0000000), wk =   0.2500000
        k(    7) = (  -0.5000000   0.0000000   0.0000000), wk =   0.1250000
        k(    8) = (  -0.5000000   0.2500000   0.0000000), wk =   0.2500000
        k(    9) = (  -0.5000000  -0.5000000   0.0000000), wk =   0.1250000

     Initial potential from superposition of free atoms

     starting charge  278.99980, renormalised to  288.00000

     negative rho (up, down):  3.396E+00 0.000E+00
     Starting wfcs are  216 randomized atomic wfcs

     Self-consistent Calculation

     iteration #  1     ecut=    30.00 Ry     beta= 0.30
     Davidson diagonalization with overlap
     ethr =  1.00E-02,  avg # of iterations =  6.0

     negative rho (up, down):  3.217E+00 0.000E+00

     total energy              =   -3783.59100033 Ry
     estimated scf accuracy    <      34.34365006 Ry

[...]

     End of self-consistent calculation

          k = 0.0000 0.0000 0.0000 ( 24099 PWs)   bands (ev):

   -51.5032 -51.5032 -51.5031 -51.5030 -51.4998 -51.4997 -51.4848 -51.4848
   -51.4847 -51.4847 -51.4641 -51.4639 -51.3748 -51.3564 -51.3432 -51.3431
   -51.3376 -51.3375 -51.3136 -51.3135 -51.3003 -51.3003 -51.2815 -51.2802
   -51.2802 -51.2801 -51.2800 -51.2569 -51.2568 -51.2327 -51.2327 -51.2326
   -51.2325 -51.2193 -51.2192 -51.1863 -51.0504 -51.0110 -51.0109 -51.0091
   -51.0091 -51.0012 -51.0012 -51.0012 -51.0011 -50.9815 -50.9815 -50.9814
   -50.9813 -50.9781 -50.9781 -50.9731 -50.9729 -50.9727  -5.7040  -4.9446
    -4.9446  -4.3308  -4.3308  -4.2690  -3.6586  -3.6586  -3.2782  -3.2782
    -3.2782  -3.2781  -3.1805  -3.1805  -2.9998  -2.9998  -2.9998  -2.9997
    -2.9468  -2.9468  -2.9430  -2.9430  -2.7562  -2.7562  -2.7562  -2.7562
    -2.6448  -2.5632  -2.5632  -2.5632  -2.5632  -2.4298  -2.4298  -2.2031
    -1.9957  -1.9268  -1.9268  -1.6402  -1.6402  -1.6401  -1.6401  -1.5183
    -1.5183  -1.4734  -1.4733  -1.3185  -1.3184  -1.2815  -1.2815  -1.2146
    -1.2146  -1.2086  -1.0827  -1.0827  -1.0826  -1.0826  -0.9586  -0.9585
    -0.9585  -0.9585  -0.8994  -0.8994  -0.8377  -0.8377  -0.4575  -0.4378
    -0.3813  -0.3813  -0.3813  -0.3812  -0.2724  -0.1277  -0.1276  -0.0261
    -0.0261  -0.0261  -0.0261   0.0472   0.0472   0.0580   0.0581   0.0581
     0.0582   0.1223   0.1223   0.2787   0.4268   0.4269   0.4537   0.4538
     0.5720   0.5720   0.6309   0.7549   0.7792   0.7792   0.7792   0.7793
     0.8054   0.8055   1.4878   1.4878   2.3938   2.3938   3.1843   3.1843
     3.3587   3.3587   3.3587   3.3587   4.5096   4.6716   4.6716   6.0903
     6.0903   6.0903   6.0903   6.2534   6.3201

     occupation numbers
     1.0000   1.0000   1.0000   1.0000   1.0000   1.0000   1.0000   1.0000
[...]
     2.6705   2.6705   2.6705   2.6705   2.7976   2.7977   2.7977   2.7977
     3.0180   3.0180   5.3840   5.3840   5.3841   5.3841   5.4170   5.4171
     5.4171   5.4172   5.9471   5.9471   5.9473

     occupation numbers
     1.0000   1.0000   1.0000   1.0000   1.0000   1.0000   1.0000   1.0000
     1.0000   1.0000   1.0000   1.0000   1.0000   1.0000   1.0000   1.0000
     1.0000   1.0000   1.0000   1.0000   1.0000   1.0000   1.0000   1.0000
     1.0000   1.0000   1.0000   1.0000   1.0000   1.0000   1.0000   1.0000
     1.0000   1.0000   1.0000   1.0000   1.0000   1.0000   1.0000   1.0000
     1.0000   1.0000   1.0000   1.0000   1.0000   1.0000   1.0000   1.0000
     1.0000   1.0000   1.0000   1.0000   1.0000   1.0000   1.0000   1.0000
     1.0000   1.0000   1.0000   1.0000   1.0000   1.0000   1.0000   1.0000
     1.0000   1.0000   1.0000   1.0000   1.0000   1.0000   1.0000   1.0000
     1.0000   1.0000   1.0000   1.0000   1.0000   1.0000   1.0000   1.0000
     1.0000   1.0000   1.0000   1.0000   1.0000   1.0000   1.0000   1.0000
     1.0000   1.0000   1.0000   1.0000   1.0000   1.0000   1.0000   1.0000
     1.0000   1.0000   1.0000   1.0000   1.0000   1.0000   1.0000   1.0000
     1.0000   1.0000   1.0000   1.0000   1.0000   1.0000   1.0000   1.0000
     1.0000   1.0000   1.0000   1.0000   1.0000   1.0000   1.0000   1.0000
     1.0000   1.0000   1.0000   1.0000   1.0000   1.0000   1.0000   1.0000
     1.0000   1.0000   1.0000   1.0000   1.0000   1.0000   1.0000   1.0000
     1.0000   1.0000   1.0000   1.0000   1.0000   1.0000   0.0000   0.0000
     0.0000   0.0000   0.0000   0.0000   0.0000   0.0000   0.0000   0.0000
     0.0000   0.0000   0.0000   0.0000   0.0000   0.0000   0.0000   0.0000
     0.0000   0.0000   0.0000   0.0000   0.0000   0.0000   0.0000   0.0000
     0.0000   0.0000   0.0000   0.0000   0.0000

     the Fermi energy is     0.3341 ev

!    total energy              =   -3791.30584612 Ry
     estimated scf accuracy    <          7.5E-09 Ry
     smearing contrib. (-TS)   =      -0.00136160 Ry
     internal energy E=F+TS    =   -3791.30448452 Ry

     The total energy is F=E-TS. E is the sum of the following terms:
     one-electron contribution =   -8852.63369278 Ry
     hartree contribution      =    4457.75563974 Ry
     xc contribution           =   -1022.75638833 Ry
     ewald contribution        =    1626.32995685 Ry

     convergence has been achieved in   9 iterations

     negative rho (up, down):  3.107E+00 0.000E+00

     Forces acting on atoms (cartesian axes, Ry/au):

     atom    1 type  1   force =     0.00000000    0.00000000   -0.00003308
     atom    2 type  1   force =     0.00000192    0.00000888    0.00002850
     atom    3 type  1   force =     0.00000000    0.00000756   -0.00002868
     atom    4 type  1   force =     0.00000642    0.00000000    0.00001540
     atom    5 type  1   force =     0.00000000   -0.00000756   -0.00002868
     atom    6 type  1   force =     0.00000192   -0.00000888    0.00002850
     atom    7 type  1   force =    -0.00000674    0.00000000   -0.00002972
     atom    8 type  1   force =     0.00000000    0.00000736    0.00003385
     atom    9 type  1   force =    -0.00000690    0.00000172   -0.00001998
     atom   10 type  1   force =     0.00000000    0.00000000    0.00001729
     atom   11 type  1   force =    -0.00000690   -0.00000172   -0.00001998
     atom   12 type  1   force =     0.00000000   -0.00000736    0.00003385
     atom   13 type  1   force =     0.00000674    0.00000000   -0.00002972
     atom   14 type  1   force =    -0.00000192    0.00000888    0.00002850
     atom   15 type  1   force =     0.00000690    0.00000172   -0.00001998
     atom   16 type  1   force =    -0.00000642    0.00000000    0.00001540
     atom   17 type  1   force =     0.00000690   -0.00000172   -0.00001998
     atom   18 type  1   force =    -0.00000192   -0.00000888    0.00002850
     The non-local contrib.  to forces
     atom    1 type  1   force =     0.00000000    0.00000000   -0.13237234
     atom    2 type  1   force =    -0.00000836    0.00000644    0.13237637
     atom    3 type  1   force =     0.00000000    0.00001237   -0.13239164
     atom    4 type  1   force =    -0.00000518    0.00000000    0.13237464
     atom    5 type  1   force =     0.00000000   -0.00001237   -0.13239164
     atom    6 type  1   force =    -0.00000836   -0.00000644    0.13237637
     atom    7 type  1   force =     0.00000188    0.00000000   -0.13236969
     atom    8 type  1   force =     0.00000000    0.00000039    0.13238658
     atom    9 type  1   force =     0.00000366   -0.00000330   -0.13237645
     atom   10 type  1   force =     0.00000000    0.00000000    0.13237989
     atom   11 type  1   force =     0.00000366    0.00000330   -0.13237645
     atom   12 type  1   force =     0.00000000   -0.00000039    0.13238658
     atom   13 type  1   force =    -0.00000188    0.00000000   -0.13236969
     atom   14 type  1   force =     0.00000836    0.00000644    0.13237637
     atom   15 type  1   force =    -0.00000366   -0.00000330   -0.13237645
     atom   16 type  1   force =     0.00000518    0.00000000    0.13237464
     atom   17 type  1   force =    -0.00000366    0.00000330   -0.13237645
     atom   18 type  1   force =     0.00000836   -0.00000644    0.13237637
     The ionic contribution  to forces
     atom    1 type  1   force =    -0.00000000    0.00006466  -30.05537080
     atom    2 type  1   force =     0.00033377    0.00125976   30.05275482
     atom    3 type  1   force =     0.00000000    0.00193133  -30.05882813
     atom    4 type  1   force =    -0.00037909   -0.00001337   30.05179461
     atom    5 type  1   force =     0.00000000   -0.00198089  -30.05882814
     atom    6 type  1   force =     0.00033377   -0.00126149   30.05277888
     atom    7 type  1   force =     0.00056990    0.00006466  -30.05025706
     atom    8 type  1   force =     0.00000000    0.00023907   30.05660645
     atom    9 type  1   force =    -0.00001712    0.00014740  -30.05304986
     atom   10 type  1   force =    -0.00000000   -0.00001337   30.05784708
     atom   11 type  1   force =    -0.00001712   -0.00019696  -30.05304987
     atom   12 type  1   force =     0.00000000   -0.00024081   30.05663051
     atom   13 type  1   force =    -0.00056990    0.00006466  -30.05025706
     atom   14 type  1   force =    -0.00033377    0.00125976   30.05275482
     atom   15 type  1   force =     0.00001712    0.00014740  -30.05304986
     atom   16 type  1   force =     0.00037909   -0.00001337   30.05179461
     atom   17 type  1   force =     0.00001712   -0.00019696  -30.05304987
     atom   18 type  1   force =    -0.00033377   -0.00126149   30.05277888
     The local contribution  to forces
     atom    1 type  1   force =    -0.00000000   -0.00000000   30.18336943
     atom    2 type  1   force =    -0.00028206   -0.00154365  -30.18088182
     atom    3 type  1   force =    -0.00000000   -0.00220262   30.18692291
     atom    4 type  1   force =     0.00040926   -0.00027654  -30.17985398
     atom    5 type  1   force =    -0.00000000    0.00164955   30.18692292
     atom    6 type  1   force =    -0.00028206    0.00099058  -30.18088182
     atom    7 type  1   force =    -0.00060295   -0.00000000   30.17822096
     atom    8 type  1   force =     0.00000000   -0.00053266  -30.18477527
     atom    9 type  1   force =    -0.00002541   -0.00043358   30.18110448
     atom   10 type  1   force =     0.00000000   -0.00027654  -30.18594002
     atom   11 type  1   force =    -0.00002541   -0.00011949   30.18110448
     atom   12 type  1   force =     0.00000000   -0.00002041  -30.18477527
     atom   13 type  1   force =     0.00060295   -0.00000000   30.17822096
     atom   14 type  1   force =     0.00028206   -0.00154365  -30.18088182
     atom   15 type  1   force =     0.00002541   -0.00043358   30.18110448
     atom   16 type  1   force =    -0.00040926   -0.00027654  -30.17985398
     atom   17 type  1   force =     0.00002541   -0.00011949   30.18110448
     atom   18 type  1   force =     0.00028206    0.00099058  -30.18088182
     The core correction contribution to forces
     atom    1 type  1   force =     0.00000000    0.00000000    0.00429202
     atom    2 type  1   force =    -0.00000175    0.00000998   -0.00429191
     atom    3 type  1   force =    -0.00000000    0.00000917    0.00429112
     atom    4 type  1   force =    -0.00000083    0.00001017   -0.00429239
     atom    5 type  1   force =    -0.00000000    0.00001116    0.00429112
     atom    6 type  1   force =    -0.00000175    0.00001035   -0.00429191
     atom    7 type  1   force =    -0.00000077   -0.00000000    0.00429092
     atom    8 type  1   force =    -0.00000000    0.00001019   -0.00429159
     atom    9 type  1   force =     0.00000005    0.00000969    0.00429171
     atom   10 type  1   force =    -0.00000000    0.00001017   -0.00429579
     atom   11 type  1   force =     0.00000005    0.00001064    0.00429171
     atom   12 type  1   force =    -0.00000000    0.00001014   -0.00429159
     atom   13 type  1   force =     0.00000077   -0.00000000    0.00429092
     atom   14 type  1   force =     0.00000175    0.00000998   -0.00429191
     atom   15 type  1   force =    -0.00000005    0.00000969    0.00429171
     atom   16 type  1   force =     0.00000083    0.00001017   -0.00429239
     atom   17 type  1   force =    -0.00000005    0.00001064    0.00429171
     atom   18 type  1   force =     0.00000175    0.00001035   -0.00429191
     The Hubbard contrib.    to forces
     atom    1 type  1   force =     0.00000000    0.00000000    0.00000000
     atom    2 type  1   force =     0.00000000    0.00000000    0.00000000
     atom    3 type  1   force =     0.00000000    0.00000000    0.00000000
     atom    4 type  1   force =     0.00000000    0.00000000    0.00000000
     atom    5 type  1   force =     0.00000000    0.00000000    0.00000000
     atom    6 type  1   force =     0.00000000    0.00000000    0.00000000
     atom    7 type  1   force =     0.00000000    0.00000000    0.00000000
     atom    8 type  1   force =     0.00000000    0.00000000    0.00000000
     atom    9 type  1   force =     0.00000000    0.00000000    0.00000000
     atom   10 type  1   force =     0.00000000    0.00000000    0.00000000
     atom   11 type  1   force =     0.00000000    0.00000000    0.00000000
     atom   12 type  1   force =     0.00000000    0.00000000    0.00000000
     atom   13 type  1   force =     0.00000000    0.00000000    0.00000000
     atom   14 type  1   force =     0.00000000    0.00000000    0.00000000
     atom   15 type  1   force =     0.00000000    0.00000000    0.00000000
     atom   16 type  1   force =     0.00000000    0.00000000    0.00000000
     atom   17 type  1   force =     0.00000000    0.00000000    0.00000000
     atom   18 type  1   force =     0.00000000    0.00000000    0.00000000
     The SCF correction term to forces
     atom    1 type  1   force =     0.00000000    0.00000000    0.00004928
     atom    2 type  1   force =    -0.00003967    0.00000911    0.00005968
     atom    3 type  1   force =    -0.00000000   -0.00003384   -0.00002228
     atom    4 type  1   force =    -0.00001774    0.00000000   -0.00000681
     atom    5 type  1   force =    -0.00000000    0.00003384   -0.00002228
     atom    6 type  1   force =    -0.00003967   -0.00000911    0.00005968
     atom    7 type  1   force =     0.00002521    0.00000000    0.00008580
     atom    8 type  1   force =     0.00000000    0.00002314    0.00009631
     atom    9 type  1   force =     0.00003193   -0.00000965    0.00001081
     atom   10 type  1   force =    -0.00000000    0.00000000    0.00002680
     atom   11 type  1   force =     0.00003193    0.00000965    0.00001081
     atom   12 type  1   force =    -0.00000000   -0.00002314    0.00009631
     atom   13 type  1   force =    -0.00002521    0.00000000    0.00008580
     atom   14 type  1   force =     0.00003967    0.00000911    0.00005968
     atom   15 type  1   force =    -0.00003193   -0.00000965    0.00001081
     atom   16 type  1   force =     0.00001774    0.00000000   -0.00000681
     atom   17 type  1   force =    -0.00003193    0.00000965    0.00001081
     atom   18 type  1   force =     0.00003967   -0.00000911    0.00005968

     Total force =     0.000116     Total SCF correction =     0.000262
     SCF correction compared to forces is large: reduce conv_thr to get better values

     Computing stress (Cartesian axis) and pressure

     negative rho (up, down):  3.107E+00 0.000E+00
          total   stress  (Ry/bohr**3)                   (kbar)     P=       -2.72
   0.00021055   0.00000000   0.00000000           30.97        0.00        0.00
   0.00000000  -0.00019077   0.00000000            0.00      -28.06        0.00
   0.00000000   0.00000000  -0.00007525            0.00        0.00      -11.07

     kinetic stress (kbar)  11325.74      0.00      0.00
                                0.00  11396.79      0.00
                                0.00      0.00  11895.90

     local   stress (kbar)-137742.03      0.00     -0.00
                                0.00-138293.13      0.00
                               -0.00      0.00 148269.13

     nonloc. stress (kbar)    -50.65      0.00      0.00
                                0.00    -76.62      0.00
                                0.00      0.00     72.81

     hartree stress (kbar)  70039.13     -0.00      0.00
                               -0.00  70359.44      0.00
                                0.00      0.00 -65038.36

     exc-cor stress (kbar)   8508.97     -0.00     -0.00
                               -0.00   8509.11     -0.00
                               -0.00     -0.00   8496.47

     corecor stress (kbar) -11717.73     -0.00     -0.00
                               -0.00 -11723.08     -0.00
                               -0.00     -0.00 -11733.82

     ewald   stress (kbar)  59667.55     -0.00      0.00
                               -0.00  59799.43     -0.00
                                0.00     -0.00 -91973.20

     hubbard stress (kbar)      0.00      0.00      0.00
                                0.00      0.00      0.00
                                0.00      0.00      0.00

     DFT-D   stress (kbar)      0.00      0.00      0.00
                                0.00      0.00      0.00
                                0.00      0.00      0.00

     XDM     stress (kbar)      0.00      0.00      0.00
                                0.00      0.00      0.00
                                0.00      0.00      0.00

     dft-nl  stress (kbar)      0.00      0.00      0.00
                                0.00      0.00      0.00
                                0.00      0.00      0.00

     TS-vdW  stress (kbar)      0.00      0.00      0.00
                                0.00      0.00      0.00
                                0.00      0.00      0.00

     Energy error            =      6.0E-06
     Gradient error          =      3.4E-05

     bfgs converged in   9 scf cycles and   8 bfgs steps
     (criteria: energy <  1.0E-04 Ry, force <  1.0E-03 Ry/Bohr)

     End of BFGS Geometry Optimization

     Final energy   =   -3791.3058461214 Ry

     File ./surface.bfgs deleted, as requested
Begin final coordinates

ATOMIC_POSITIONS (angstrom)
Pt            0.0000000000        0.0000000000        0.3525600472
Pt            1.9883802625        1.4059819502        1.0533617930
Pt            0.0000000000        2.8119418705        0.3525049239
Pt            1.9883273439        4.2180015000        1.0533458000
Pt            0.0000000000        5.6240611295        0.3525049239
Pt            1.9883802625        7.0300210498        1.0533617930
Pt            3.9768057240        0.0000000000        0.3526804424
Pt            5.9651550000        1.4060202297        1.0534654658
Pt            3.9767749664        2.8120121379        0.3526315059
Pt            5.9651550000        4.2180015000        1.0534779927
Pt            3.9767749664        5.6239908621        0.3526315059
Pt            5.9651550000        7.0299827703        1.0534654658
Pt            7.9535042760        0.0000000000        0.3526804424
Pt            9.9419297375        1.4059819502        1.0533617930
Pt            7.9535350336        2.8120121379        0.3526315059
Pt            9.9419826561        4.2180015000        1.0533458000
Pt            7.9535350336        5.6239908621        0.3526315059
Pt            9.9419297375        7.0300210498        1.0533617930
End final coordinates

     Writing output data file ./surface.save/

     General routines

     Parallel routines

   This run was terminated on:  19:22:26   6Dec2021

   JOB DONE.