     Program PWSCF v.6.7MaX starts on  9Dec2021 at 17:50:35

     R & G space division:  proc/nbgrp/npool/nimage =      32
     Reading input from ag_surface.110.qe.in

     Current dimensions of program PWSCF are:
     Max number of different atomic species (ntypx) = 10
     Max number of k-points (npk) =  40000
     Max angular momentum in pseudopotentials (lmaxx) =  3

     Found symmetry operation: I + (  0.0000  0.3333  0.0000)
     This is a supercell, fractional translations are disabled

     bravais-lattice index     =            8
     lattice parameter (alat)  =      23.5869  a.u.
     unit-cell volume          =    9621.1061 (a.u.)^3
     number of atoms/cell      =           18
     number of atomic types    =            1
     number of electrons       =       342.00
     number of Kohn-Sham states=          205
     kinetic-energy cutoff     =      30.0000  Ry
     charge density cutoff     =     300.0000  Ry
     scf convergence threshold =      1.0E-06
     mixing beta               =       0.3000
     number of iterations used =            8  plain     mixing
     energy convergence thresh.=      1.0E-04
     force convergence thresh. =      1.0E-03
     Exchange-correlation=  SLA  PW   PBX  PBC
                           (   1   4   3   4   0   0   0)
     nstep                     =           50

     celldm(1)=  23.586881  celldm(2)=   0.707107  celldm(3)=   1.036879
     celldm(4)=   0.000000  celldm(5)=   0.000000  celldm(6)=   0.000000

     crystal axes: (cart. coord. in units of alat)
               a(1) = (   1.000000   0.000000   0.000000 )
               a(2) = (   0.000000   0.707107   0.000000 )
               a(3) = (   0.000000   0.000000   1.036879 )

     reciprocal axes: (cart. coord. in units 2 pi/alat)
               b(1) = (  1.000000  0.000000  0.000000 )
               b(2) = (  0.000000  1.414212  0.000000 )
               b(3) = (  0.000000  0.000000  0.964433 )

     PseudoPot. # 1 for Ag read from file:
     /expanse/lustre/projects/csd622/tpascal/nano110/qe/pseudo/ag_pbe_v1.4.uspp.F.UPF
     MD5 check sum: d66d668201baa78d5eb5b04ef7011058
     Pseudo is Ultrasoft + core correction, Zval = 19.0
     Generated by new atomic code, or converted to UPF format
     Using radial grid of  887 points,  6 beta functions with:
                l(1) =   0
                l(2) =   0
                l(3) =   1
                l(4) =   1
                l(5) =   2
                l(6) =   2
     Q(r) pseudized with  6 coefficients,  rinner =    1.300   1.300   1.300
                                                       1.300   1.300

     atomic species   valence    mass     pseudopotential
        Ag            19.00   107.86820     Ag( 1.00)

      4 Sym. Ops. (no inversion) found

                                    s                        frac. trans.

      isym =  1     identity

 cryst.   s( 1) = (     1          0          0      )
                  (     0          1          0      )
                  (     0          0          1      )

 cart.    s( 1) = (  1.0000000  0.0000000  0.0000000 )
                  (  0.0000000  1.0000000  0.0000000 )
                  (  0.0000000  0.0000000  1.0000000 )

      isym =  2     180 deg rotation - cart. axis [0,0,1]

[...]

      isym =  3     inv. 180 deg rotation - cart. axis [0,1,0]

[...]

      isym =  4     inv. 180 deg rotation - cart. axis [1,0,0]

 cryst.   s( 4) = (    -1          0          0      )
                  (     0          1          0      )
                  (     0          0          1      )

 cart.    s( 4) = ( -1.0000000  0.0000000  0.0000000 )
                  (  0.0000000  1.0000000  0.0000000 )
                  (  0.0000000  0.0000000  1.0000000 )

     point group C_2v (mm2)
     there are  4 classes
     the character table:

       E     C2    s_v   s_v'
A_1    1.00  1.00  1.00  1.00
A_2    1.00  1.00 -1.00 -1.00
B_1    1.00 -1.00  1.00 -1.00
B_2    1.00 -1.00 -1.00  1.00

     the symmetry operations in each class and the name of the first element:

     E        1
          identity
     C2       2
          180 deg rotation - cart. axis [0,0,1]
     s_v      4
          inv. 180 deg rotation - cart. axis [1,0,0]
     s_v'     3
          inv. 180 deg rotation - cart. axis [0,1,0]

   Cartesian axes

     site n.     atom                  positions (alat units)
         1           Ag  tau(   1) = (   0.0000000   0.0000000   0.0000000  )
         2           Ag  tau(   2) = (   0.1666667   0.1178512   0.1178512  )
         3           Ag  tau(   3) = (   0.0000000   0.2357024   0.0000000  )
         4           Ag  tau(   4) = (   0.1666667   0.3535535   0.1178512  )
         5           Ag  tau(   5) = (   0.0000000   0.4714047   0.0000000  )
         6           Ag  tau(   6) = (   0.1666667   0.5892559   0.1178512  )
         7           Ag  tau(   7) = (   0.3333334   0.0000000   0.0000000  )
         8           Ag  tau(   8) = (   0.5000002   0.1178512   0.1178512  )
         9           Ag  tau(   9) = (   0.3333334   0.2357024   0.0000000  )
        10           Ag  tau(  10) = (   0.5000002   0.3535535   0.1178512  )
        11           Ag  tau(  11) = (   0.3333334   0.4714047   0.0000000  )
        12           Ag  tau(  12) = (   0.5000002   0.5892559   0.1178512  )
        13           Ag  tau(  13) = (   0.6666669   0.0000000   0.0000000  )
        14           Ag  tau(  14) = (   0.8333336   0.1178512   0.1178512  )
        15           Ag  tau(  15) = (   0.6666669   0.2357024   0.0000000  )
        16           Ag  tau(  16) = (   0.8333336   0.3535535   0.1178512  )
        17           Ag  tau(  17) = (   0.6666669   0.4714047   0.0000000  )
        18           Ag  tau(  18) = (   0.8333336   0.5892559   0.1178512  )

   Crystallographic axes

     site n.     atom                  positions (cryst. coord.)
         1           Ag  tau(   1) = (  0.0000000  0.0000000  0.0000000  )
         2           Ag  tau(   2) = (  0.1666667  0.1666666  0.1136595  )
         3           Ag  tau(   3) = (  0.0000000  0.3333332  0.0000000  )
         4           Ag  tau(   4) = (  0.1666667  0.4999998  0.1136595  )
         5           Ag  tau(   5) = (  0.0000000  0.6666664  0.0000000  )
         6           Ag  tau(   6) = (  0.1666667  0.8333330  0.1136595  )
         7           Ag  tau(   7) = (  0.3333334  0.0000000  0.0000000  )
         8           Ag  tau(   8) = (  0.5000002  0.1666666  0.1136595  )
         9           Ag  tau(   9) = (  0.3333334  0.3333332  0.0000000  )
        10           Ag  tau(  10) = (  0.5000002  0.4999998  0.1136595  )
        11           Ag  tau(  11) = (  0.3333334  0.6666664  0.0000000  )
        12           Ag  tau(  12) = (  0.5000002  0.8333330  0.1136595  )
        13           Ag  tau(  13) = (  0.6666669  0.0000000  0.0000000  )
        14           Ag  tau(  14) = (  0.8333336  0.1666666  0.1136595  )
        15           Ag  tau(  15) = (  0.6666669  0.3333332  0.0000000  )
        16           Ag  tau(  16) = (  0.8333336  0.4999998  0.1136595  )
        17           Ag  tau(  17) = (  0.6666669  0.6666664  0.0000000  )
        18           Ag  tau(  18) = (  0.8333336  0.8333330  0.1136595  )

     number of k points=     9  Gaussian smearing, width (Ry)=  0.0030
                       cart. coord. in units 2pi/alat
        k(    1) = (   0.0000000   0.0000000   0.0000000), wk =   0.1250000
        k(    2) = (   0.0000000   0.3535531   0.0000000), wk =   0.2500000
        k(    3) = (   0.0000000  -0.7071062   0.0000000), wk =   0.1250000
        k(    4) = (   0.2500000   0.0000000   0.0000000), wk =   0.2500000
        k(    5) = (   0.2500000   0.3535531   0.0000000), wk =   0.5000000
        k(    6) = (   0.2500000  -0.7071062   0.0000000), wk =   0.2500000
        k(    7) = (  -0.5000000   0.0000000   0.0000000), wk =   0.1250000
        k(    8) = (  -0.5000000   0.3535531   0.0000000), wk =   0.2500000
        k(    9) = (  -0.5000000  -0.7071062   0.0000000), wk =   0.1250000

                       cryst. coord.
        k(    1) = (   0.0000000   0.0000000   0.0000000), wk =   0.1250000
        k(    2) = (   0.0000000   0.2500000   0.0000000), wk =   0.2500000
        k(    3) = (   0.0000000  -0.5000000   0.0000000), wk =   0.1250000
        k(    4) = (   0.2500000   0.0000000   0.0000000), wk =   0.2500000
        k(    5) = (   0.2500000   0.2500000   0.0000000), wk =   0.5000000
        k(    6) = (   0.2500000  -0.5000000   0.0000000), wk =   0.2500000
        k(    7) = (  -0.5000000   0.0000000   0.0000000), wk =   0.1250000
        k(    8) = (  -0.5000000   0.2500000   0.0000000), wk =   0.2500000
        k(    9) = (  -0.5000000  -0.5000000   0.0000000), wk =   0.1250000

     Initial potential from superposition of free atoms

     starting charge  332.99915, renormalised to  342.00000

     negative rho (up, down):  7.036E-03 0.000E+00
     Starting wfcs are  234 randomized atomic wfcs

     Self-consistent Calculation

     iteration #  1     ecut=    30.00 Ry     beta= 0.30
     Davidson diagonalization with overlap
     ethr =  1.00E-02,  avg # of iterations =  7.0

     negative rho (up, down):  1.426E-03 0.000E+00

     total energy              =   -5312.66352770 Ry
     estimated scf accuracy    <      31.75207176 Ry

[...]

     End of self-consistent calculation

          k = 0.0000 0.0000 0.0000 ( 26735 PWs)   bands (ev):

   -90.8422 -90.8400 -90.8400 -90.8367 -90.8367 -90.8356 -90.8356 -90.8356
   -90.8356 -90.8356 -90.8356 -90.8335 -90.8334 -90.8334 -90.8334 -90.8334
   -90.8323 -90.8323 -54.3557 -54.3557 -54.3557 -54.3557 -54.3556 -54.3556
   -54.3511 -54.3511 -54.3510 -54.3510 -54.3452 -54.3452 -54.3286 -54.3279
   -54.3279 -54.3208 -54.3208 -54.3142 -54.3088 -54.3088 -54.3074 -54.3072
   -54.3072 -54.3072 -54.3072 -54.3013 -54.3013 -54.3013 -54.3013 -54.3005
   -54.3004 -54.2980 -54.2980 -54.2892 -54.2892 -54.2891 -54.2878 -54.2878
   -54.2826 -54.2808 -54.2808 -54.2808 -54.2808 -54.2800 -54.2800 -54.2777
   -54.2777 -54.2768 -54.2768 -54.2768 -54.2768 -54.2696 -54.2696 -54.2673
    -4.5410  -4.4788  -4.4788  -4.4726  -4.3506  -4.3506  -4.0227  -4.0227
    -3.9593  -3.9593  -3.9452  -3.9452  -3.9337  -3.9337  -3.9337  -3.9337
    -3.8931  -3.8930  -3.8524  -3.8523  -3.8523  -3.8523  -3.7903  -3.7514
    -3.7514  -3.7514  -3.7514  -3.7035  -3.7035  -3.7015  -3.7015  -3.7015
    -3.7015  -3.6389  -3.3363  -3.3068  -3.3068  -3.3068  -3.3068  -3.2729
    -3.2729  -3.1941  -3.1941  -3.1830  -3.1830  -3.1167  -3.1167  -3.0957
    -2.9707  -2.9707  -2.9173  -2.9173  -2.8927  -2.8927  -2.8927  -2.8927
    -2.8916  -2.8916  -2.8916  -2.8916  -2.8209  -2.7616  -2.7616  -2.7615
    -2.7615  -2.7452  -2.7141  -2.7140  -2.6982  -2.6982  -2.5729  -2.5496
    -2.5496  -2.5496  -2.5496  -2.4798  -2.4696  -2.4696  -2.4677  -2.4677
    -2.4677  -2.4677  -2.4406  -2.4406  -2.3626  -2.3626  -2.3300  -2.3300
    -2.2379  -2.2378  -2.1863  -2.1863  -2.1720  -1.4912  -1.4912  -0.2918
    -0.2918  -0.2918  -0.2917   0.2920   0.7155   0.7156   1.6539   1.6540
     2.4119   2.4119   2.5519   2.5519   2.5519   2.5520   3.2097   3.6639
[...]
     1.0000   1.0000   1.0000   1.0000   1.0000   1.0000   1.0000   1.0000
     1.0000   1.0000   1.0000   1.0000   1.0000   1.0000   1.0000   1.0000
     1.0000   1.0000   1.0000   1.0000   1.0000   1.0000   1.0000   1.0000
     1.0000   1.0000   1.0000   1.0000   1.0000   1.0000   1.0000   1.0000
     1.0000   1.0000   1.0000   1.0000   1.0000   1.0000   1.0000   1.0000
     1.0000   1.0000   1.0000   1.0000   1.0000   1.0000   1.0000   1.0000
     1.0000   1.0000   1.0000   1.0000   1.0000   1.0000   1.0000   1.0000
     1.0000   1.0000   1.0000   1.0000   1.0000   1.0000   1.0000   1.0000
     1.0000   1.0000   1.0000   1.0000   1.0000   1.0000   1.0000   1.0000
     1.0000   1.0000   1.0000   1.0000   1.0000   1.0000   1.0000   1.0000
     1.0000   1.0000   1.0000   1.0000   1.0000   1.0000   1.0000   1.0000
     1.0000   1.0000   1.0000   1.0000   1.0000   1.0000   1.0000   1.0000
     1.0000   1.0000   1.0000   1.0000   1.0000   1.0000   1.0000   1.0000
     1.0000   1.0000   1.0000   1.0000   1.0000   1.0000   1.0000   1.0000
     1.0000   1.0000   1.0000   1.0000   1.0000   1.0000   1.0000   1.0000
     1.0000   1.0000   1.0000   1.0000   1.0000   1.0000   1.0000   1.0000
     1.0000   1.0000   1.0000   1.0000   1.0000   1.0000   1.0000   1.0000
     1.0000   1.0000   1.0000   1.0000   1.0000   1.0000   1.0000   1.0000
     1.0000   1.0000   1.0000   1.0000   1.0000   1.0000   1.0000   1.0000
     1.0000   1.0000   0.0000   0.0000   0.0000   0.0000   0.0000   0.0000
     0.0000   0.0000   0.0000   0.0000   0.0000   0.0000   0.0000   0.0000
     0.0000   0.0000   0.0000   0.0000   0.0000   0.0000   0.0000   0.0000
     0.0000   0.0000   0.0000   0.0000   0.0000   0.0000   0.0000   0.0000
     0.0000   0.0000   0.0000   0.0000   0.0000

     the Fermi energy is     0.7180 ev

!    total energy              =   -5320.28503193 Ry
     estimated scf accuracy    <          2.5E-09 Ry
     smearing contrib. (-TS)   =      -0.00024618 Ry
     internal energy E=F+TS    =   -5320.28478574 Ry

     The total energy is F=E-TS. E is the sum of the following terms:
     one-electron contribution =  -13085.57723435 Ry
     hartree contribution      =    6512.38324885 Ry
     xc contribution           =    -520.90801454 Ry
     ewald contribution        =    1773.81721430 Ry

     convergence has been achieved in   6 iterations

     negative rho (up, down):  7.838E-03 0.000E+00

     Forces acting on atoms (cartesian axes, Ry/au):

     atom    1 type  1   force =     0.00000000    0.00000000   -0.00016011
     atom    2 type  1   force =     0.00004908    0.00000049    0.00014002
     atom    3 type  1   force =     0.00000000    0.00000103   -0.00015977
     atom    4 type  1   force =     0.00004804    0.00000000    0.00013974
     atom    5 type  1   force =     0.00000000   -0.00000103   -0.00015977
     atom    6 type  1   force =     0.00004908   -0.00000049    0.00014002
     atom    7 type  1   force =     0.00004180    0.00000000   -0.00010366
     atom    8 type  1   force =     0.00000000   -0.00000040    0.00008738
     atom    9 type  1   force =     0.00004119   -0.00000002   -0.00010368
     atom   10 type  1   force =     0.00000000    0.00000000    0.00008737
     atom   11 type  1   force =     0.00004119    0.00000002   -0.00010368
     atom   12 type  1   force =     0.00000000    0.00000040    0.00008738
     atom   13 type  1   force =    -0.00004180    0.00000000   -0.00010366
     atom   14 type  1   force =    -0.00004908    0.00000049    0.00014002
     atom   15 type  1   force =    -0.00004119   -0.00000002   -0.00010368
     atom   16 type  1   force =    -0.00004804    0.00000000    0.00013974
     atom   17 type  1   force =    -0.00004119    0.00000002   -0.00010368
     atom   18 type  1   force =    -0.00004908   -0.00000049    0.00014002
     The non-local contrib.  to forces
     atom    1 type  1   force =     0.00000000    0.00000000   -0.29044392
     atom    2 type  1   force =    -0.00001275    0.00000076    0.29041259
     atom    3 type  1   force =     0.00000000    0.00000182   -0.29044273
     atom    4 type  1   force =    -0.00001382    0.00000000    0.29041192
     atom    5 type  1   force =     0.00000000   -0.00000182   -0.29044273
     atom    6 type  1   force =    -0.00001275   -0.00000076    0.29041259
     atom    7 type  1   force =    -0.00001330    0.00000000   -0.29033056
     atom    8 type  1   force =     0.00000000   -0.00000118    0.29031013
     atom    9 type  1   force =    -0.00001397   -0.00000013   -0.29032999
     atom   10 type  1   force =     0.00000000    0.00000000    0.29031000
     atom   11 type  1   force =    -0.00001397    0.00000013   -0.29032999
     atom   12 type  1   force =     0.00000000    0.00000118    0.29031013
     atom   13 type  1   force =     0.00001330    0.00000000   -0.29033056
     atom   14 type  1   force =     0.00001275    0.00000076    0.29041259
     atom   15 type  1   force =     0.00001397   -0.00000013   -0.29032999
     atom   16 type  1   force =     0.00001382    0.00000000    0.29041192
     atom   17 type  1   force =     0.00001397    0.00000013   -0.29032999
     atom   18 type  1   force =     0.00001275   -0.00000076    0.29041259
     The ionic contribution  to forces
     atom    1 type  1   force =     0.00012490   -0.00010216  -46.08031932
     atom    2 type  1   force =     0.01788770    0.00019205   46.07075782
     atom    3 type  1   force =     0.00012490    0.00037666  -46.08001788
     atom    4 type  1   force =     0.01767298    0.00002108   46.07059329
     atom    5 type  1   force =     0.00012490   -0.00029528  -46.08001788
     atom    6 type  1   force =     0.01788769   -0.00019236   46.07071297
     atom    7 type  1   force =     0.01673534   -0.00010214  -46.05593316
     atom    8 type  1   force =    -0.00001670   -0.00008651   46.05036230
     atom    9 type  1   force =     0.01658279    0.00007144  -46.05579921
     atom   10 type  1   force =    -0.00001670    0.00002108   46.05040913
     atom   11 type  1   force =     0.01658279    0.00000993  -46.05579921
     atom   12 type  1   force =    -0.00001670    0.00008619   46.05031747
     atom   13 type  1   force =    -0.01678231   -0.00010214  -46.05593316
     atom   14 type  1   force =    -0.01794893    0.00019205   46.07082488
     atom   15 type  1   force =    -0.01662976    0.00007144  -46.05579921
     atom   16 type  1   force =    -0.01773420    0.00002108   46.07066035
     atom   17 type  1   force =    -0.01662976    0.00000993  -46.05579921
     atom   18 type  1   force =    -0.01794891   -0.00019236   46.07078003
     The local contribution  to forces
     atom    1 type  1   force =     0.00000000   -0.00000000   46.36914496
     atom    2 type  1   force =    -0.01865982    0.00057115  -46.35954227
     atom    3 type  1   force =     0.00000000    0.00042695   46.36884274
     atom    4 type  1   force =    -0.01844532    0.00076340  -46.35939981
     atom    5 type  1   force =     0.00000000    0.00109984   46.36884274
     atom    6 type  1   force =    -0.01865982    0.00095565  -46.35954227
     atom    7 type  1   force =    -0.01751064   -0.00000000   46.34468517
     atom    8 type  1   force =    -0.00076806    0.00085040  -46.33905006
     atom    9 type  1   force =    -0.01735826    0.00073274   46.34455061
     atom   10 type  1   force =    -0.00076806    0.00076341  -46.33911918
     atom   11 type  1   force =    -0.01735826    0.00079408   46.34455061
     atom   12 type  1   force =    -0.00076806    0.00067642  -46.33905006
     atom   13 type  1   force =     0.01597452   -0.00000000   46.34468518
     atom   14 type  1   force =     0.01712368    0.00057115  -46.35954229
     atom   15 type  1   force =     0.01582213    0.00073274   46.34455063
     atom   16 type  1   force =     0.01690918    0.00076340  -46.35939983
     atom   17 type  1   force =     0.01582213    0.00079408   46.34455063
     atom   18 type  1   force =     0.01712368    0.00095565  -46.35954229
     The core correction contribution to forces
     atom    1 type  1   force =     0.00000000   -0.00000000    0.00151625
     atom    2 type  1   force =    -0.00000037    0.00000050   -0.00152199
     atom    3 type  1   force =     0.00000000    0.00000050    0.00151623
     atom    4 type  1   force =    -0.00000036    0.00000051   -0.00152198
     atom    5 type  1   force =     0.00000000    0.00000052    0.00151623
     atom    6 type  1   force =    -0.00000037    0.00000051   -0.00152199
     atom    7 type  1   force =    -0.00000045   -0.00000000    0.00151549
     atom    8 type  1   force =    -0.00000051    0.00000051   -0.00152129
     atom    9 type  1   force =    -0.00000044    0.00000051    0.00151548
     atom   10 type  1   force =    -0.00000051    0.00000051   -0.00152129
     atom   11 type  1   force =    -0.00000044    0.00000051    0.00151548
     atom   12 type  1   force =    -0.00000051    0.00000050   -0.00152129
     atom   13 type  1   force =    -0.00000057   -0.00000000    0.00151549
     atom   14 type  1   force =    -0.00000065    0.00000050   -0.00152199
     atom   15 type  1   force =    -0.00000057    0.00000051    0.00151548
     atom   16 type  1   force =    -0.00000065    0.00000051   -0.00152198
     atom   17 type  1   force =    -0.00000057    0.00000051    0.00151548
     atom   18 type  1   force =    -0.00000065    0.00000051   -0.00152199
     The Hubbard contrib.    to forces
     atom    1 type  1   force =     0.00000000    0.00000000    0.00000000
     atom    2 type  1   force =     0.00000000    0.00000000    0.00000000
     atom    3 type  1   force =     0.00000000    0.00000000    0.00000000
     atom    4 type  1   force =     0.00000000    0.00000000    0.00000000
     atom    5 type  1   force =     0.00000000    0.00000000    0.00000000
     atom    6 type  1   force =     0.00000000    0.00000000    0.00000000
     atom    7 type  1   force =     0.00000000    0.00000000    0.00000000
     atom    8 type  1   force =     0.00000000    0.00000000    0.00000000
     atom    9 type  1   force =     0.00000000    0.00000000    0.00000000
     atom   10 type  1   force =     0.00000000    0.00000000    0.00000000
     atom   11 type  1   force =     0.00000000    0.00000000    0.00000000
     atom   12 type  1   force =     0.00000000    0.00000000    0.00000000
     atom   13 type  1   force =     0.00000000    0.00000000    0.00000000
     atom   14 type  1   force =     0.00000000    0.00000000    0.00000000
     atom   15 type  1   force =     0.00000000    0.00000000    0.00000000
     atom   16 type  1   force =     0.00000000    0.00000000    0.00000000
     atom   17 type  1   force =     0.00000000    0.00000000    0.00000000
     atom   18 type  1   force =     0.00000000    0.00000000    0.00000000
     The SCF correction term to forces
     atom    1 type  1   force =    -0.00000000    0.00000000   -0.00005838
     atom    2 type  1   force =     0.00003512   -0.00000021    0.00002247
     atom    3 type  1   force =    -0.00000000   -0.00000030   -0.00005844
     atom    4 type  1   force =     0.00003537    0.00000000    0.00002250
     atom    5 type  1   force =    -0.00000000    0.00000031   -0.00005844
     atom    6 type  1   force =     0.00003512    0.00000021    0.00002247
     atom    7 type  1   force =     0.00003880    0.00000000   -0.00004091
     atom    8 type  1   force =    -0.00000000    0.00000014    0.00000841
     atom    9 type  1   force =     0.00003901    0.00000002   -0.00004090
     atom   10 type  1   force =    -0.00000000    0.00000000    0.00000840
     atom   11 type  1   force =     0.00003901   -0.00000002   -0.00004091
     atom   12 type  1   force =    -0.00000000   -0.00000014    0.00000841
     atom   13 type  1   force =    -0.00003880    0.00000000   -0.00004091
     atom   14 type  1   force =    -0.00003513   -0.00000021    0.00002247
     atom   15 type  1   force =    -0.00003902    0.00000002   -0.00004090
     atom   16 type  1   force =    -0.00003537    0.00000000    0.00002250
     atom   17 type  1   force =    -0.00003902   -0.00000002   -0.00004090
     atom   18 type  1   force =    -0.00003513    0.00000021    0.00002247

     Total force =     0.000553     Total SCF correction =     0.000200
     SCF correction compared to forces is large: reduce conv_thr to get better values

     Computing stress (Cartesian axis) and pressure

     negative rho (up, down):  7.838E-03 0.000E+00
          total   stress  (Ry/bohr**3)                   (kbar)     P=      -16.92
  -0.00004942   0.00000000   0.00000000           -7.27        0.00        0.00
   0.00000000  -0.00014273   0.00000000            0.00      -21.00        0.00
   0.00000000   0.00000000  -0.00015286            0.00        0.00      -22.49

     kinetic stress (kbar)  12289.32      0.00      0.00
                                0.00  12279.78      0.00
                                0.00      0.00  12392.57

     local   stress (kbar)-160469.65      0.00      0.01
                                0.00-163271.05     -0.00
                                0.01     -0.00 163290.01

     nonloc. stress (kbar)   1443.76      0.00      0.00
                                0.00   1446.00      0.00
                                0.00      0.00   1407.35

     hartree stress (kbar)  84790.28      0.00     -0.00
                                0.00  86045.78      0.00
                               -0.00      0.00 -71262.83

     exc-cor stress (kbar)  -2215.02      0.00      0.00
                                0.00  -2214.38     -0.00
                                0.00     -0.00  -2224.06

     corecor stress (kbar)   -300.05     -0.00     -0.00
                               -0.00   -300.03      0.00
                               -0.00      0.00   -299.90

     ewald   stress (kbar)  64454.09     -0.00     -0.01
                               -0.00  65992.90      0.00
                               -0.01      0.00-103325.62

     hubbard stress (kbar)      0.00      0.00      0.00
                                0.00      0.00      0.00
                                0.00      0.00      0.00

     DFT-D   stress (kbar)      0.00      0.00      0.00
                                0.00      0.00      0.00
                                0.00      0.00      0.00

     XDM     stress (kbar)      0.00      0.00      0.00
                                0.00      0.00      0.00
                                0.00      0.00      0.00

     dft-nl  stress (kbar)      0.00      0.00      0.00
                                0.00      0.00      0.00
                                0.00      0.00      0.00

     TS-vdW  stress (kbar)      0.00      0.00      0.00
                                0.00      0.00      0.00
                                0.00      0.00      0.00

     Energy error            =      4.2E-06
     Gradient error          =      1.6E-04

     bfgs converged in   9 scf cycles and   8 bfgs steps
     (criteria: energy <  1.0E-04 Ry, force <  1.0E-03 Ry/Bohr)

     End of BFGS Geometry Optimization

     Final energy   =   -5320.2850319256 Ry

     File ./surface.bfgs deleted, as requested
Begin final coordinates

ATOMIC_POSITIONS (angstrom)
Ag            0.0000000000        0.0000000000        0.2654013875
Ag            2.0799739157        1.4709718797        1.2055008726
Ag            0.0000000000        2.9419471251        0.2654039927
Ag            2.0799754712        4.4129280000        1.2055002440
Ag            0.0000000000        5.8839088749        0.2654039927
Ag            2.0799739157        7.3548841203        1.2055008726
Ag            4.1602751590        0.0000000000        0.2655557154
Ag            6.2408220000        1.4709758370        1.2054093569
Ag            4.1602755479        2.9419509825        0.2655574715
Ag            6.2408220000        4.4129280000        1.2054106183
Ag            4.1602755479        5.8839050175        0.2655574715
Ag            6.2408220000        7.3548801630        1.2054093569
Ag            8.3213688410        0.0000000000        0.2655557154
Ag           10.4016700843        1.4709718797        1.2055008726
Ag            8.3213684521        2.9419509825        0.2655574715
Ag           10.4016685288        4.4129280000        1.2055002440
Ag            8.3213684521        5.8839050175        0.2655574715
Ag           10.4016700843        7.3548841203        1.2055008726
End final coordinates

     Writing output data file ./surface.save/

     General routines

     Parallel routines

   This run was terminated on:  18: 0:17   9Dec2021

   JOB DONE.