     Program PWSCF v.6.7MaX starts on 10Dec2021 at  3:51:42

     R & G space division:  proc/nbgrp/npool/nimage =      16
     Reading input from pt_surface.110.qe.7656382.1_1_3.in

     Current dimensions of program PWSCF are:
     Max number of different atomic species (ntypx) = 10
     Max number of k-points (npk) =  40000
     Max angular momentum in pseudopotentials (lmaxx) =  3

     bravais-lattice index     =            8
     lattice parameter (alat)  =       7.5150  a.u.
     unit-cell volume          =    1391.2625 (a.u.)^3
     number of atoms/cell      =            6
     number of atomic types    =            1
     number of electrons       =        96.00
     number of Kohn-Sham states=           58
     kinetic-energy cutoff     =      30.0000  Ry
     charge density cutoff     =     300.0000  Ry
     scf convergence threshold =      1.0E-06
     mixing beta               =       0.3000
     number of iterations used =            8  plain     mixing
     energy convergence thresh.=      1.0E-04
     force convergence thresh. =      1.0E-03
     Exchange-correlation=  SLA  PW   PBX  PBC
                           (   1   4   3   4   0   0   0)
     nstep                     =           50

     celldm(1)=   7.515006  celldm(2)=   0.707107  celldm(3)=   4.635923
     celldm(4)=   0.000000  celldm(5)=   0.000000  celldm(6)=   0.000000

     crystal axes: (cart. coord. in units of alat)
               a(1) = (   1.000000   0.000000   0.000000 )
               a(2) = (   0.000000   0.707107   0.000000 )
               a(3) = (   0.000000   0.000000   4.635923 )

     reciprocal axes: (cart. coord. in units 2 pi/alat)
               b(1) = (  1.000000  0.000000  0.000000 )
               b(2) = (  0.000000  1.414214  0.000000 )
               b(3) = (  0.000000  0.000000  0.215707 )

     PseudoPot. # 1 for Pt read from file:
     /expanse/lustre/projects/csd622/tpascal/nano110/qe/pseudo/pt_pbe_v1.4.uspp.F.UPF
     MD5 check sum: f09d6de1a584b5a045c4fc126da2d0c4
     Pseudo is Ultrasoft + core correction, Zval = 16.0
     Generated by new atomic code, or converted to UPF format
     Using radial grid of  985 points,  6 beta functions with:
                l(1) =   0
                l(2) =   0
                l(3) =   1
                l(4) =   1
                l(5) =   2
                l(6) =   2
     Q(r) pseudized with  8 coefficients,  rinner =    1.300   1.300   1.300
                                                       1.300   1.300

     atomic species   valence    mass     pseudopotential
        Pt            16.00   195.08400     Pt( 1.00)

      4 Sym. Ops. (no inversion) found

                                    s                        frac. trans.

      isym =  1     identity

 cryst.   s( 1) = (     1          0          0      )
                  (     0          1          0      )
                  (     0          0          1      )

 cart.    s( 1) = (  1.0000000  0.0000000  0.0000000 )
                  (  0.0000000  1.0000000  0.0000000 )
                  (  0.0000000  0.0000000  1.0000000 )

      isym =  2     180 deg rotation - cart. axis [0,0,1]

[...]

      isym =  3     inv. 180 deg rotation - cart. axis [0,1,0]

[...]

      isym =  4     inv. 180 deg rotation - cart. axis [1,0,0]

 cryst.   s( 4) = (    -1          0          0      )
                  (     0          1          0      )
                  (     0          0          1      )

 cart.    s( 4) = ( -1.0000000  0.0000000  0.0000000 )
                  (  0.0000000  1.0000000  0.0000000 )
                  (  0.0000000  0.0000000  1.0000000 )

     point group C_2v (mm2)
     there are  4 classes
     the character table:

       E     C2    s_v   s_v'
A_1    1.00  1.00  1.00  1.00
A_2    1.00  1.00 -1.00 -1.00
B_1    1.00 -1.00  1.00 -1.00
B_2    1.00 -1.00 -1.00  1.00

     the symmetry operations in each class and the name of the first element:

     E        1
          identity
     C2       2
          180 deg rotation - cart. axis [0,0,1]
     s_v      4
          inv. 180 deg rotation - cart. axis [1,0,0]
     s_v'     3
          inv. 180 deg rotation - cart. axis [0,1,0]

   Cartesian axes

     site n.     atom                  positions (alat units)
         1           Pt  tau(   1) = (   0.0000000   0.0000000   0.0000000  )
         2           Pt  tau(   2) = (   0.0000000   0.0000000   0.7071065  )
         3           Pt  tau(   3) = (   0.0000000   0.0000000   1.4142130  )
         4           Pt  tau(   4) = (   0.5000000   0.3535533   0.3535533  )
         5           Pt  tau(   5) = (   0.5000000   0.3535533   1.0606598  )
         6           Pt  tau(   6) = (   0.5000000   0.3535533   1.7677663  )

   Crystallographic axes

     site n.     atom                  positions (cryst. coord.)
         1           Pt  tau(   1) = (  0.0000000  0.0000000  0.0000000  )
         2           Pt  tau(   2) = (  0.0000000  0.0000000  0.1525277  )
         3           Pt  tau(   3) = (  0.0000000  0.0000000  0.3050553  )
         4           Pt  tau(   4) = (  0.5000000  0.5000000  0.0762638  )
         5           Pt  tau(   5) = (  0.5000000  0.5000000  0.2287915  )
         6           Pt  tau(   6) = (  0.5000000  0.5000000  0.3813192  )

     number of k points=     9  Gaussian smearing, width (Ry)=  0.0030
                       cart. coord. in units 2pi/alat
        k(    1) = (   0.0000000   0.0000000   0.0000000), wk =   0.1250000
        k(    2) = (   0.0000000   0.3535535   0.0000000), wk =   0.2500000
        k(    3) = (   0.0000000  -0.7071070   0.0000000), wk =   0.1250000
        k(    4) = (   0.2500000   0.0000000   0.0000000), wk =   0.2500000
        k(    5) = (   0.2500000   0.3535535   0.0000000), wk =   0.5000000
        k(    6) = (   0.2500000  -0.7071070   0.0000000), wk =   0.2500000
        k(    7) = (  -0.5000000   0.0000000   0.0000000), wk =   0.1250000
        k(    8) = (  -0.5000000   0.3535535   0.0000000), wk =   0.2500000
        k(    9) = (  -0.5000000  -0.7071070   0.0000000), wk =   0.1250000

                       cryst. coord.
        k(    1) = (   0.0000000   0.0000000   0.0000000), wk =   0.1250000
        k(    2) = (   0.0000000   0.2500000   0.0000000), wk =   0.2500000
        k(    3) = (   0.0000000  -0.5000000   0.0000000), wk =   0.1250000
        k(    4) = (   0.2500000   0.0000000   0.0000000), wk =   0.2500000
        k(    5) = (   0.2500000   0.2500000   0.0000000), wk =   0.5000000
        k(    6) = (   0.2500000  -0.5000000   0.0000000), wk =   0.2500000
        k(    7) = (  -0.5000000   0.0000000   0.0000000), wk =   0.1250000
        k(    8) = (  -0.5000000   0.2500000   0.0000000), wk =   0.2500000
        k(    9) = (  -0.5000000  -0.5000000   0.0000000), wk =   0.1250000

     Initial potential from superposition of free atoms

     starting charge   92.99993, renormalised to   96.00000

     negative rho (up, down):  1.134E+00 0.000E+00
     Starting wfcs are   72 randomized atomic wfcs

     Self-consistent Calculation

     iteration #  1     ecut=    30.00 Ry     beta= 0.30
     Davidson diagonalization with overlap
     ethr =  1.00E-02,  avg # of iterations =  5.0

     negative rho (up, down):  1.081E+00 0.000E+00

     total energy              =   -1260.14472334 Ry
     estimated scf accuracy    <      13.30055683 Ry

[...]

     End of self-consistent calculation

          k = 0.0000 0.0000 0.0000 (  3869 PWs)   bands (ev):

   -45.9708 -45.8644 -45.8248 -45.8167 -45.7904 -45.7864 -45.6904 -45.6883
   -45.6878 -45.6425 -45.6154 -45.5702 -45.0437 -45.0432 -44.9341 -44.9337
   -44.7989 -44.7977  -2.3031  -0.6818   0.5484   1.0228   1.1233   1.3553
     1.9811   2.5932   2.7816   2.7843   3.2632   3.3968   3.4717   3.5080
     3.8240   3.9332   4.0373   4.2449   4.6997   4.7050   5.1087   5.1593
     5.2704   5.4357   5.5764   5.8021   6.0941   6.2875   6.4545   6.6711
     6.7464   6.8813   7.2007   7.6652   9.7292  10.1519  11.7363  11.8978
    12.9912  13.7107

     occupation numbers
     1.0000   1.0000   1.0000   1.0000   1.0000   1.0000   1.0000   1.0000
     1.0000   1.0000   1.0000   1.0000   1.0000   1.0000   1.0000   1.0000
     1.0000   1.0000   1.0000   1.0000   1.0000   1.0000   1.0000   1.0000
     1.0000   1.0000   1.0000   1.0000   1.0000   1.0000   1.0000   1.0000
     1.0000   1.0000   1.0000   1.0000   1.0000   1.0000   1.0000   1.0000
     1.0000   1.0000   1.0000   1.0000   1.0000   1.0000   1.0000   1.0000
     1.0000   0.3063   0.0000   0.0000   0.0000   0.0000   0.0000   0.0000
     0.0000   0.0000

[...]

          k =-0.5000 0.0000 0.0000 (  3898 PWs)   bands (ev):

[...]

     the Fermi energy is     6.8667 ev

!    total energy              =   -1263.95655746 Ry
     estimated scf accuracy    <       0.00000090 Ry
     smearing contrib. (-TS)   =      -0.00073750 Ry
     internal energy E=F+TS    =   -1263.95581996 Ry

     The total energy is F=E-TS. E is the sum of the following terms:
     one-electron contribution =   -5143.24607246 Ry
     hartree contribution      =    2605.14572475 Ry
     xc contribution           =    -340.97447785 Ry
     ewald contribution        =    1615.11900560 Ry

     convergence has been achieved in  17 iterations

[...]

     Forces acting on atoms (cartesian axes, Ry/au):

     atom    1 type  1   force =     0.00000000    0.00000000    0.02909323
     atom    2 type  1   force =     0.00000000    0.00000000   -0.01339979
     atom    3 type  1   force =     0.00000000    0.00000000    0.03262044
     atom    4 type  1   force =     0.00000000    0.00000000   -0.03262850
     atom    5 type  1   force =     0.00000000    0.00000000    0.01341068
     atom    6 type  1   force =     0.00000000    0.00000000   -0.02909605
     The non-local contrib.  to forces
     atom    1 type  1   force =     0.00000000    0.00000000   -0.13232783
     atom    2 type  1   force =     0.00000000    0.00000000   -0.00910083
     atom    3 type  1   force =     0.00000000    0.00000000   -0.00678843
     atom    4 type  1   force =     0.00000000    0.00000000    0.00665622
     atom    5 type  1   force =     0.00000000    0.00000000    0.00892835
     atom    6 type  1   force =     0.00000000    0.00000000    0.13222323
     The ionic contribution  to forces
     atom    1 type  1   force =    -0.00000000   -0.00000000 -203.59521512
     atom    2 type  1   force =    -0.00000000   -0.00000000  -43.48063035
     atom    3 type  1   force =    -0.00000000    0.00000000  133.26754034
     atom    4 type  1   force =     0.00000000    0.00000000 -133.26754034
     atom    5 type  1   force =    -0.00000000    0.00000000   43.48063035
     atom    6 type  1   force =     0.00000000    0.00000000  203.59521512
     The local contribution  to forces
     atom    1 type  1   force =     0.00000000    0.00000000  203.74028642
     atom    2 type  1   force =     0.00000000   -0.00000000   43.48689140
     atom    3 type  1   force =     0.00000000    0.00000000 -133.22360298
     atom    4 type  1   force =     0.00000000    0.00000000  133.22721438
     atom    5 type  1   force =     0.00000000    0.00000000  -43.48253006
     atom    6 type  1   force =    -0.00000000    0.00000000 -203.73875188
     The core correction contribution to forces
     atom    1 type  1   force =    -0.00000000   -0.00000000    0.01786070
     atom    2 type  1   force =     0.00000000    0.00000000   -0.00677957
     atom    3 type  1   force =    -0.00000000   -0.00000000   -0.00487592
     atom    4 type  1   force =    -0.00000000   -0.00000000    0.00487877
     atom    5 type  1   force =     0.00000000   -0.00000000    0.00678128
     atom    6 type  1   force =    -0.00000000   -0.00000000   -0.01786971
     The Hubbard contrib.    to forces
     atom    1 type  1   force =     0.00000000    0.00000000    0.00000000
     atom    2 type  1   force =     0.00000000    0.00000000    0.00000000
     atom    3 type  1   force =     0.00000000    0.00000000    0.00000000
     atom    4 type  1   force =     0.00000000    0.00000000    0.00000000
     atom    5 type  1   force =     0.00000000    0.00000000    0.00000000
     atom    6 type  1   force =     0.00000000    0.00000000    0.00000000
     The SCF correction term to forces
     atom    1 type  1   force =    -0.00000000    0.00000000   -0.00153962
     atom    2 type  1   force =     0.00000000   -0.00000000   -0.00380913
     atom    3 type  1   force =    -0.00000000    0.00000000    0.00031875
     atom    4 type  1   force =    -0.00000000    0.00000000   -0.00386621
     atom    5 type  1   force =    -0.00000000   -0.00000000   -0.00042793
     atom    6 type  1   force =     0.00000000   -0.00000000    0.00005849

     Total force =     0.064661     Total SCF correction =     0.005667

     Computing stress (Cartesian axis) and pressure

     negative rho (up, down):  1.052E+00 0.000E+00
          total   stress  (Ry/bohr**3)                   (kbar)     P=      -64.63
  -0.00037200   0.00000000   0.00000000          -54.72        0.00        0.00
   0.00000000  -0.00074207   0.00000000            0.00     -109.16        0.00
   0.00000000   0.00000000  -0.00020389            0.00        0.00      -29.99

     kinetic stress (kbar)  24160.35      0.00      0.00
                                0.00  23867.43      0.00
                                0.00      0.00  24361.10

     local   stress (kbar)-512738.31     -0.00     -0.00
                               -0.00-517613.32     -0.00
                               -0.00     -0.00 532168.06

     nonloc. stress (kbar)   -168.87      0.00      0.00
                                0.00   -167.43      0.00
                                0.00      0.00   -140.28

     hartree stress (kbar) 262356.36     -0.00      0.00
                               -0.00 264278.74     -0.00
                                0.00     -0.00-251180.14

     exc-cor stress (kbar)  17728.89      0.00     -0.00
                                0.00  17730.45      0.00
                               -0.00      0.00  17725.83

     corecor stress (kbar) -24447.71      0.00      0.00
                                0.00 -24433.92     -0.00
                                0.00     -0.00 -24455.63

     ewald   stress (kbar) 233054.57      0.00      0.00
                                0.00 236228.89      0.00
                                0.00      0.00-298508.93

     hubbard stress (kbar)      0.00      0.00      0.00
                                0.00      0.00      0.00
                                0.00      0.00      0.00

     DFT-D   stress (kbar)      0.00      0.00      0.00
                                0.00      0.00      0.00
                                0.00      0.00      0.00

     XDM     stress (kbar)      0.00      0.00      0.00
                                0.00      0.00      0.00
                                0.00      0.00      0.00

     dft-nl  stress (kbar)      0.00      0.00      0.00
                                0.00      0.00      0.00
                                0.00      0.00      0.00

     TS-vdW  stress (kbar)      0.00      0.00      0.00
                                0.00      0.00      0.00
                                0.00      0.00      0.00

     BFGS Geometry Optimization
     Energy error            =      0.0E+00
     Gradient error          =      3.3E-02

     number of scf cycles    =   1
     number of bfgs steps    =   0

     energy   new            =   -1263.9565574624 Ry

     new trust radius        =       0.0326284993 bohr
     new conv_thr            =       0.0000010000 Ry

ATOMIC_POSITIONS (angstrom)
Pt            0.0000000000        0.0000000000        0.0153954753
Pt            0.0000000000        0.0000000000        2.8049091348
Pt            0.0000000000        0.0000000000        5.6412619915
Pt            1.9883850000        1.4060000000        1.3887337418
Pt            1.9883850000        1.4060000000        4.2250966254
Pt            1.9883850000        1.4060000000        7.0146030313

     Writing output data file ./surface.save/
     NEW-OLD atomic charge density approx. for the potential

[...]

     Energy error            =      3.7E-03
     Gradient error          =      2.6E-02

[...]

     energy   old            =   -1263.9565574624 Ry
     energy   new            =   -1263.9602699293 Ry

     CASE: energy  _new < energy  _old

[...]

     Total force =     0.003187     Total SCF correction =     0.000080

[...]

     number of scf cycles    =   7
     number of bfgs steps    =   6

     energy   old            =   -1263.9670646955 Ry
     energy   new            =   -1263.9671761328 Ry

     CASE: energy  _new < energy  _old

     new trust radius        =       0.0046986786 bohr
     new conv_thr            =       0.0000000111 Ry

ATOMIC_POSITIONS (angstrom)
Pt            0.0000000000        0.0000000000        0.0912761828
Pt            0.0000000000        0.0000000000        2.8130542549
Pt            0.0000000000        0.0000000000        5.7258766816
Pt            1.9883850000        1.4060000000        1.3041142047
Pt            1.9883850000        1.4060000000        4.2170080298
Pt            1.9883850000        1.4060000000        6.9386706462

     Writing output data file ./surface.save/
     NEW-OLD atomic charge density approx. for the potential

[...]

     Self-consistent Calculation

[...]

     total energy              =   -1263.96719017 Ry
     estimated scf accuracy    <       0.00000003 Ry

     iteration #  9     ecut=    30.00 Ry     beta= 0.30
     Davidson diagonalization with overlap
     ethr =  3.41E-11,  avg # of iterations =  1.0

[...]

     End of self-consistent calculation

[...]

          k = 0.2500-0.7071 0.0000 (  3840 PWs)   bands (ev):

[...]

          k =-0.5000-0.7071 0.0000 (  3788 PWs)   bands (ev):

   -45.9780 -45.9780 -45.9411 -45.9410 -45.7924 -45.7924 -45.6819 -45.6818
   -45.6285 -45.6284 -45.5813 -45.5812 -45.4088 -45.4087 -45.1681 -45.1679
   -44.9604 -44.9602   0.5454   0.5455   1.5344   1.5344   1.9847   1.9849
     2.6720   2.6720   2.6856   2.6857   3.2211   3.2211   3.3920   3.3920
     3.8029   3.8031   4.3416   4.3417   4.7765   4.7766   5.3800   5.3801
     5.9730   5.9730   6.8097   6.8098   6.8934   6.8934   7.0399   7.0399
     7.9870   7.9870  10.5399  10.5399  12.2432  12.2433  12.3069  12.3069
    12.7883  12.7884

     occupation numbers
     1.0000   1.0000   1.0000   1.0000   1.0000   1.0000   1.0000   1.0000
     1.0000   1.0000   1.0000   1.0000   1.0000   1.0000   1.0000   1.0000
     1.0000   1.0000   1.0000   1.0000   1.0000   1.0000   1.0000   1.0000
     1.0000   1.0000   1.0000   1.0000   1.0000   1.0000   1.0000   1.0000
     1.0000   1.0000   1.0000   1.0000   1.0000   1.0000   1.0000   1.0000
     1.0000   1.0000   0.9998   0.9998   0.7533   0.7529   0.0000   0.0000
     0.0000   0.0000   0.0000   0.0000   0.0000   0.0000   0.0000   0.0000
     0.0000   0.0000

     the Fermi energy is     6.9131 ev

!    total energy              =   -1263.96719017 Ry
     estimated scf accuracy    <          4.7E-09 Ry
     smearing contrib. (-TS)   =      -0.00095199 Ry
     internal energy E=F+TS    =   -1263.96623818 Ry

     The total energy is F=E-TS. E is the sum of the following terms:
     one-electron contribution =   -5180.46074256 Ry
     hartree contribution      =    2623.59996441 Ry
     xc contribution           =    -341.05434330 Ry
     ewald contribution        =    1633.94888325 Ry

     convergence has been achieved in   9 iterations

     negative rho (up, down):  1.051E+00 0.000E+00

     Forces acting on atoms (cartesian axes, Ry/au):

     atom    1 type  1   force =     0.00000000    0.00000000    0.00045112
     atom    2 type  1   force =     0.00000000    0.00000000    0.00043122
     atom    3 type  1   force =     0.00000000    0.00000000   -0.00093138
     atom    4 type  1   force =     0.00000000    0.00000000    0.00093243
     atom    5 type  1   force =     0.00000000    0.00000000   -0.00044427
     atom    6 type  1   force =     0.00000000    0.00000000   -0.00043912
     The non-local contrib.  to forces
     atom    1 type  1   force =     0.00000000    0.00000000   -0.13832927
     atom    2 type  1   force =     0.00000000    0.00000000   -0.00408877
     atom    3 type  1   force =     0.00000000    0.00000000   -0.05051042
     atom    4 type  1   force =     0.00000000    0.00000000    0.05050821
     atom    5 type  1   force =     0.00000000    0.00000000    0.00407890
     atom    6 type  1   force =     0.00000000    0.00000000    0.13832013
     The ionic contribution  to forces
     atom    1 type  1   force =     0.00000000   -0.00000000 -203.62976159
     atom    2 type  1   force =    -0.00000000   -0.00000000  -40.36652596
     atom    3 type  1   force =    -0.00000000   -0.00000000  135.02010651
     atom    4 type  1   force =     0.00000000    0.00000000 -135.01957609
     atom    5 type  1   force =     0.00000000    0.00000000   40.36398276
     atom    6 type  1   force =     0.00000000    0.00000000  203.63177438
     The local contribution  to forces
     atom    1 type  1   force =     0.00000000    0.00000000  203.74660087
     atom    2 type  1   force =    -0.00000000    0.00000000   40.37885088
     atom    3 type  1   force =     0.00000000    0.00000000 -134.96637537
     atom    4 type  1   force =     0.00000000    0.00000000  134.96598240
     atom    5 type  1   force =    -0.00000000    0.00000000  -40.37652061
     atom    6 type  1   force =    -0.00000000    0.00000000 -203.74830577
     The core correction contribution to forces
     atom    1 type  1   force =    -0.00000000    0.00000000    0.02219331
     atom    2 type  1   force =    -0.00000000    0.00000000   -0.00782673
     atom    3 type  1   force =     0.00000000    0.00000000   -0.00413284
     atom    4 type  1   force =    -0.00000000   -0.00000000    0.00412963
     atom    5 type  1   force =    -0.00000000   -0.00000000    0.00782814
     atom    6 type  1   force =    -0.00000000   -0.00000000   -0.02219711
     The Hubbard contrib.    to forces
     atom    1 type  1   force =     0.00000000    0.00000000    0.00000000
     atom    2 type  1   force =     0.00000000    0.00000000    0.00000000
     atom    3 type  1   force =     0.00000000    0.00000000    0.00000000
     atom    4 type  1   force =     0.00000000    0.00000000    0.00000000
     atom    5 type  1   force =     0.00000000    0.00000000    0.00000000
     atom    6 type  1   force =     0.00000000    0.00000000    0.00000000
     The SCF correction term to forces
     atom    1 type  1   force =    -0.00000000   -0.00000000   -0.00025606
     atom    2 type  1   force =     0.00000000   -0.00000000    0.00001792
     atom    3 type  1   force =     0.00000000   -0.00000000   -0.00002313
     atom    4 type  1   force =    -0.00000000   -0.00000000   -0.00011557
     atom    5 type  1   force =    -0.00000000    0.00000000    0.00018267
     atom    6 type  1   force =     0.00000000    0.00000000   -0.00003462

     Total force =     0.001586     Total SCF correction =     0.000338
     SCF correction compared to forces is large: reduce conv_thr to get better values

     Computing stress (Cartesian axis) and pressure

     negative rho (up, down):  1.051E+00 0.000E+00
          total   stress  (Ry/bohr**3)                   (kbar)     P=      -50.51
  -0.00022594   0.00000000   0.00000000          -33.24        0.00        0.00
   0.00000000  -0.00065349   0.00000000            0.00      -96.13        0.00
   0.00000000   0.00000000  -0.00015075            0.00        0.00      -22.18

     kinetic stress (kbar)  24131.14      0.00      0.00
                                0.00  23891.71      0.00
                                0.00      0.00  24379.97

     local   stress (kbar)-518305.46      0.00      0.00
                                0.00-521950.14     -0.00
                                0.00     -0.00 538135.26

     nonloc. stress (kbar)   -158.82      0.00      0.00
                                0.00   -168.38      0.00
                                0.00      0.00   -119.63

     hartree stress (kbar) 264891.88     -0.00      0.00
                               -0.00 266351.56     -0.00
                                0.00     -0.00-253837.22

     exc-cor stress (kbar)  17727.66     -0.00      0.00
                               -0.00  17728.45     -0.00
                                0.00     -0.00  17723.11

     corecor stress (kbar) -24446.40      0.00      0.00
                                0.00 -24435.92      0.00
                                0.00     -0.00 -24455.83

     ewald   stress (kbar) 236126.77      0.00     -0.00
                                0.00 238486.59     -0.00
                               -0.00     -0.00-301847.85

     hubbard stress (kbar)      0.00      0.00      0.00
                                0.00      0.00      0.00
                                0.00      0.00      0.00

     DFT-D   stress (kbar)      0.00      0.00      0.00
                                0.00      0.00      0.00
                                0.00      0.00      0.00

     XDM     stress (kbar)      0.00      0.00      0.00
                                0.00      0.00      0.00
                                0.00      0.00      0.00

     dft-nl  stress (kbar)      0.00      0.00      0.00
                                0.00      0.00      0.00
                                0.00      0.00      0.00

     TS-vdW  stress (kbar)      0.00      0.00      0.00
                                0.00      0.00      0.00
                                0.00      0.00      0.00

     Energy error            =      1.4E-05
     Gradient error          =      9.3E-04

     bfgs converged in   8 scf cycles and   7 bfgs steps
     (criteria: energy <  1.0E-04 Ry, force <  1.0E-03 Ry/Bohr)

     End of BFGS Geometry Optimization

     Final energy   =   -1263.9671901738 Ry

     File ./surface.bfgs deleted, as requested
Begin final coordinates

ATOMIC_POSITIONS (angstrom)
Pt            0.0000000000        0.0000000000        0.0912761828
Pt            0.0000000000        0.0000000000        2.8130542549
Pt            0.0000000000        0.0000000000        5.7258766816
Pt            1.9883850000        1.4060000000        1.3041142047
Pt            1.9883850000        1.4060000000        4.2170080298
Pt            1.9883850000        1.4060000000        6.9386706462
End final coordinates

     Writing output data file ./surface.save/

     General routines

     Parallel routines

   This run was terminated on:   3:52:43  10Dec2021

   JOB DONE.