     Program PWSCF v.6.7MaX starts on 10Dec2021 at  3:45:38

     R & G space division:  proc/nbgrp/npool/nimage =      16
     Reading input from pt_surface.111.qe.7656353.1_1_3.in

     Current dimensions of program PWSCF are:
     Max number of different atomic species (ntypx) = 10
     Max number of k-points (npk) =  40000
     Max angular momentum in pseudopotentials (lmaxx) =  3

     bravais-lattice index     =           14
     lattice parameter (alat)  =       5.3139  a.u.
     unit-cell volume          =    1417.0507 (a.u.)^3
     number of atoms/cell      =            9
     number of atomic types    =            1
     number of electrons       =       144.00
     number of Kohn-Sham states=           86
     kinetic-energy cutoff     =      30.0000  Ry
     charge density cutoff     =     300.0000  Ry
     scf convergence threshold =      1.0E-06
     mixing beta               =       0.3000
     number of iterations used =            8  plain     mixing
     energy convergence thresh.=      1.0E-04
     force convergence thresh. =      1.0E-03
     Exchange-correlation=  SLA  PW   PBX  PBC
                           (   1   4   3   4   0   0   0)
     nstep                     =           50

     celldm(1)=   5.313910  celldm(2)=   1.000000  celldm(3)=  10.904662
     celldm(4)=   0.000000  celldm(5)=   0.000000  celldm(6)=  -0.500000

     crystal axes: (cart. coord. in units of alat)
               a(1) = (   1.000000   0.000000   0.000000 )
               a(2) = (  -0.500000   0.866025   0.000000 )
               a(3) = (   0.000000   0.000000  10.904662 )

     reciprocal axes: (cart. coord. in units 2 pi/alat)
               b(1) = (  1.000000  0.577350 -0.000000 )
               b(2) = (  0.000000  1.154701  0.000000 )
               b(3) = (  0.000000 -0.000000  0.091704 )

     PseudoPot. # 1 for Pt read from file:
     /expanse/lustre/projects/csd622/tpascal/nano110/qe/pseudo/pt_pbe_v1.4.uspp.F.UPF
     MD5 check sum: f09d6de1a584b5a045c4fc126da2d0c4
     Pseudo is Ultrasoft + core correction, Zval = 16.0
     Generated by new atomic code, or converted to UPF format
     Using radial grid of  985 points,  6 beta functions with:
                l(1) =   0
                l(2) =   0
                l(3) =   1
                l(4) =   1
                l(5) =   2
                l(6) =   2
     Q(r) pseudized with  8 coefficients,  rinner =    1.300   1.300   1.300
                                                       1.300   1.300

     atomic species   valence    mass     pseudopotential
        Pt            16.00   195.08400     Pt( 1.00)

     No symmetry found

                                    s                        frac. trans.

      isym =  1     identity

 cryst.   s( 1) = (     1          0          0      )
                  (     0          1          0      )
                  (     0          0          1      )

 cart.    s( 1) = (  1.0000000  0.0000000  0.0000000 )
                  (  0.0000000  1.0000000  0.0000000 )
                  (  0.0000000  0.0000000  1.0000000 )

     point group C_1 (1)
     there are  1 classes
     the character table:

       E
A      1.00

     the symmetry operations in each class and the name of the first element:

     E        1
          identity

   Cartesian axes

     site n.     atom                  positions (alat units)
         1           Pt  tau(   1) = (   0.3333329   0.6666671   1.6329950  )
         2           Pt  tau(   2) = (   0.3333329   0.6666671   4.0824865  )
         3           Pt  tau(   3) = (   0.3333329   0.6666671   6.5319780  )
         4           Pt  tau(   4) = (   0.0000000   0.0000000   0.0000000  )
         5           Pt  tau(   5) = (   0.0000000   0.0000000   2.4494915  )
         6           Pt  tau(   6) = (   0.0000000   0.0000000   4.8989829  )
         7           Pt  tau(   7) = (   0.6666671   0.3333329   0.8164964  )
         8           Pt  tau(   8) = (   0.6666671   0.3333329   3.2659879  )
         9           Pt  tau(   9) = (   0.6666671   0.3333329   5.7154794  )

   Crystallographic axes

     site n.     atom                  positions (cryst. coord.)
         1           Pt  tau(   1) = (  0.7182333  0.7698009  0.1497520  )
         2           Pt  tau(   2) = (  0.7182333  0.7698009  0.3743799  )
         3           Pt  tau(   3) = (  0.7182333  0.7698009  0.5990078  )
         4           Pt  tau(   4) = (  0.0000000  0.0000000  0.0000000  )
         5           Pt  tau(   5) = (  0.0000000  0.0000000  0.2246279  )
         6           Pt  tau(   6) = (  0.0000000  0.0000000  0.4492558  )
         7           Pt  tau(   7) = (  0.8591170  0.3848996  0.0748759  )
         8           Pt  tau(   8) = (  0.8591170  0.3848996  0.2995038  )
         9           Pt  tau(   9) = (  0.8591170  0.3848996  0.5241317  )

     number of k points=    10  Gaussian smearing, width (Ry)=  0.0030
                       cart. coord. in units 2pi/alat
        k(    1) = (   0.0000000   0.0000000   0.0000000), wk =   0.1250000
        k(    2) = (   0.0000000   0.2886751   0.0000000), wk =   0.2500000
        k(    3) = (   0.0000000  -0.5773503   0.0000000), wk =   0.1250000
        k(    4) = (   0.2500000   0.4330127   0.0000000), wk =   0.2500000
        k(    5) = (  -0.2500000   0.1443376   0.0000000), wk =   0.2500000
        k(    6) = (   0.2500000   0.1443376   0.0000000), wk =   0.2500000
        k(    7) = (   0.5000000  -0.2886751   0.0000000), wk =   0.1250000
        k(    8) = (  -0.5000000  -0.2886751   0.0000000), wk =   0.1250000
        k(    9) = (  -0.2500000   0.4330127   0.0000000), wk =   0.2500000
        k(   10) = (   0.5000000   0.0000000   0.0000000), wk =   0.2500000

                       cryst. coord.
        k(    1) = (   0.0000000   0.0000000   0.0000000), wk =   0.1250000
        k(    2) = (   0.0000000   0.2500000   0.0000000), wk =   0.2500000
        k(    3) = (   0.0000000  -0.5000000   0.0000000), wk =   0.1250000
        k(    4) = (   0.2500000   0.2500000   0.0000000), wk =   0.2500000
        k(    5) = (  -0.2500000   0.2500000   0.0000000), wk =   0.2500000
        k(    6) = (   0.2500000   0.0000000   0.0000000), wk =   0.2500000
        k(    7) = (   0.5000000  -0.5000000   0.0000000), wk =   0.1250000
        k(    8) = (  -0.5000000   0.0000000   0.0000000), wk =   0.1250000
        k(    9) = (  -0.2500000   0.5000000   0.0000000), wk =   0.2500000
        k(   10) = (   0.5000000  -0.2500000   0.0000000), wk =   0.2500000

     Initial potential from superposition of free atoms

     starting charge  139.49990, renormalised to  144.00000

     negative rho (up, down):  1.712E+00 0.000E+00
     Starting wfcs are  108 randomized atomic wfcs

     Self-consistent Calculation

     iteration #  1     ecut=    30.00 Ry     beta= 0.30
     Davidson diagonalization with overlap
     ethr =  1.00E-02,  avg # of iterations =  3.7

     negative rho (up, down):  1.635E+00 0.000E+00

     total energy              =   -1889.69227013 Ry
     estimated scf accuracy    <      20.02122037 Ry

[...]

     End of self-consistent calculation

          k = 0.0000 0.0000 0.0000 (  3941 PWs)   bands (ev):

   -40.4723 -40.4538 -40.0788 -40.0285 -39.9596 -39.9566 -39.9526 -39.9075
   -39.9036 -39.8627 -39.8599 -39.8560 -39.8538 -39.8331 -39.8215 -39.8060
   -39.8055 -39.7791 -39.7754 -39.7668 -39.7148 -39.6883 -39.6879 -39.6432
   -39.6429 -39.4075 -39.4074   2.9721   3.2939   3.8088   4.4286   5.0070
     5.5461   5.7055   5.8484   5.8973   7.5299   7.6964   8.2643   8.4433
     8.7297   9.0485   9.0683   9.0830   9.2365   9.2822   9.2850   9.3584
     9.3588   9.4435   9.4484   9.4943   9.4988   9.5412   9.5827   9.6020
     9.7749   9.8003   9.9396   9.9758  10.0264  10.2663  10.3875  10.6057
    10.9894  11.2828  11.2836  11.5289  11.5463  11.5677  11.6102  11.6640
    11.8311  11.8510  11.8576  12.0340  12.0348  12.5785  12.8612  12.8938
    13.0157  13.0233  17.5888  18.2568  19.1706  20.1630

     occupation numbers
     1.0000   1.0000   1.0000   1.0000   1.0000   1.0000   1.0000   1.0000
     1.0000   1.0000   1.0000   1.0000   1.0000   1.0000   1.0000   1.0000
     1.0000   1.0000   1.0000   1.0000   1.0000   1.0000   1.0000   1.0000
     1.0000   1.0000   1.0000   1.0000   1.0000   1.0000   1.0000   1.0000
     1.0000   1.0000   1.0000   1.0000   1.0000   1.0000   1.0000   1.0000
     1.0000   1.0000   1.0000   1.0000   1.0000   1.0000   1.0000   1.0000
     1.0000   1.0000   1.0000   1.0000   1.0000   1.0000   1.0000   1.0000
     1.0000   1.0000   1.0000   1.0000   1.0000   1.0000   1.0000   1.0000
     1.0000   1.0000   1.0000   1.0000   1.0000   1.0000   1.0000   1.0000
     1.0000   1.0000   1.0000   1.0000   1.0000   1.0000   0.0012   0.0000
     0.0000   0.0000   0.0000   0.0000   0.0000   0.0000

[...]

          k =-0.2500 0.1443 0.0000 (  3966 PWs)   bands (ev):

[...]

     the Fermi energy is    12.7738 ev

!    total energy              =   -1896.11873407 Ry
     estimated scf accuracy    <       0.00000079 Ry
     smearing contrib. (-TS)   =      -0.00113869 Ry
     internal energy E=F+TS    =   -1896.11759538 Ry

     The total energy is F=E-TS. E is the sum of the following terms:
     one-electron contribution =  -11348.72388716 Ry
     hartree contribution      =    5754.06288540 Ry
     xc contribution           =    -512.02100296 Ry
     ewald contribution        =    4210.56440934 Ry

     convergence has been achieved in  43 iterations

[...]

     Forces acting on atoms (cartesian axes, Ry/au):

     atom    1 type  1   force =    -0.02215150   -0.01430716   -0.08941502
     atom    2 type  1   force =    -0.02698375   -0.01274803   -0.08269553
     atom    3 type  1   force =    -0.00450313    0.00246026    0.03374561
     atom    4 type  1   force =     0.00450312   -0.00246130   -0.03372454
     atom    5 type  1   force =     0.02699160    0.01274981    0.08267047
     atom    6 type  1   force =     0.02214589    0.01430578    0.08943721
     atom    7 type  1   force =    -0.00091390   -0.00187942    0.01214635
     atom    8 type  1   force =    -0.00000253    0.00000228   -0.00003791
     atom    9 type  1   force =     0.00091419    0.00187778   -0.01212665
     The non-local contrib.  to forces
     atom    1 type  1   force =    -0.03327941   -0.01842701   -0.03047900
     atom    2 type  1   force =    -0.03330914   -0.01771270   -0.02082887
     atom    3 type  1   force =    -0.01724038    0.00562396    0.06861986
     atom    4 type  1   force =     0.01724188   -0.00562449   -0.06854105
     atom    5 type  1   force =     0.03331493    0.01771515    0.02071464
     atom    6 type  1   force =     0.03327589    0.01842485    0.03049170
     atom    7 type  1   force =    -0.00077885   -0.00024969   -0.01507820
     atom    8 type  1   force =    -0.00000172    0.00000122   -0.00009655
     atom    9 type  1   force =     0.00077945    0.00024937    0.01516698
     The ionic contribution  to forces
     atom    1 type  1   force =    -1.15885405   -0.80150012 -172.97327030
     atom    2 type  1   force =    -1.15885404   -0.80150010   84.43030515
[...]
  -0.00002947  -0.00070954   0.00019357           -4.34     -104.38       28.48
   0.00001275   0.00019357   0.00098537            1.88       28.48      144.95

     kinetic stress (kbar)  35452.17     87.75     46.59
                               87.75  35413.90   -108.91
                               46.59   -108.91  35818.94

     local   stress (kbar)**********   1620.44    321.58
                             1620.44**********  -1568.11
                              321.58  -1568.111166709.34

     nonloc. stress (kbar)   -215.22     16.76      4.06
                               16.76   -239.38      7.49
                                4.06      7.49    -82.25

     hartree stress (kbar) 580234.34   -551.17   -108.12
                             -551.17 580933.72    483.10
                             -108.12    483.10-563834.56

     exc-cor stress (kbar)  26093.33     -0.59      0.14
                               -0.59  26094.64      1.20
                                0.14      1.20  26096.76

     corecor stress (kbar) -35998.09     -2.70     -2.17
                               -2.70 -35999.08      4.77
                               -2.17      4.77 -36009.51

     ewald   stress (kbar) 532107.68  -1174.82   -260.22
                            -1174.82 533547.88   1208.93
                             -260.22   1208.93-628553.77

     hubbard stress (kbar)      0.00      0.00      0.00
                                0.00      0.00      0.00
                                0.00      0.00      0.00

     DFT-D   stress (kbar)      0.00      0.00      0.00
                                0.00      0.00      0.00
                                0.00      0.00      0.00

     XDM     stress (kbar)      0.00      0.00      0.00
                                0.00      0.00      0.00
                                0.00      0.00      0.00

     dft-nl  stress (kbar)      0.00      0.00      0.00
                                0.00      0.00      0.00
                                0.00      0.00      0.00

     TS-vdW  stress (kbar)      0.00      0.00      0.00
                                0.00      0.00      0.00
                                0.00      0.00      0.00

     BFGS Geometry Optimization
     Energy error            =      0.0E+00
     Gradient error          =      8.9E-02

     number of scf cycles    =   1
     number of bfgs steps    =   0

     energy   new            =   -1896.1187340727 Ry

     new trust radius        =       0.0932422121 bohr
     new conv_thr            =       0.0000010000 Ry

ATOMIC_POSITIONS (angstrom)
Pt            0.9256099329        1.8670969775        4.5446656117
Pt            0.9230528170        1.8679220322       11.4361914083
Pt            0.9349490465        1.8759699160       18.3857794095
Pt            0.0023829478       -0.0013024618       -0.0178462557
Pt            0.0142833421        0.0067469085        6.9317173296
Pt            0.0117191015        0.0075702926       13.8232681325
Pt            1.8741843830        0.9363374519        2.3024155721
Pt            1.8746666605        0.9373332054        9.1839379372
Pt            1.8751517687        0.9383256778       16.0655108549

     Writing output data file ./surface.save/
     NEW-OLD atomic charge density approx. for the potential

[...]

     Energy error            =      2.1E-02
     Gradient error          =      2.6E-02

[...]

     energy   old            =   -1896.1187340727 Ry
     energy   new            =   -1896.1401743376 Ry

     CASE: energy  _new < energy  _old

[...]

     iteration #  1     ecut=    30.00 Ry     beta= 0.30
     Davidson diagonalization with overlap
     c_bands:  1 eigenvalues not converged
     ethr =  1.00E-06,  avg # of iterations = 17.0

[...]

     Total force =     0.021071     Total SCF correction =     0.002262
     SCF correction compared to forces is large: reduce conv_thr to get better values

[...]

     Total force =     0.005796     Total SCF correction =     0.000528

[...]

     number of scf cycles    =  30
     number of bfgs steps    =  29

     energy   old            =   -1896.1942930571 Ry
     energy   new            =   -1896.1943626753 Ry

     CASE: energy  _new < energy  _old

     new trust radius        =       0.0108088248 bohr
     new conv_thr            =       0.0000000100 Ry

ATOMIC_POSITIONS (angstrom)
Pt            0.5599830261        1.7112220716        4.4876458449
Pt            0.3392756511        1.7549092281       11.5361844368
Pt            0.8066165083        1.8358410060       18.6301482827
Pt            0.1307691119        0.0388258815       -0.2623064160
Pt            0.5981063091        0.1198043731        6.8317844072
Pt            0.3772839547        0.1634021686       13.8802890794
Pt            1.7851663022        0.8537866190        2.1423785477
Pt            1.8747128614        0.9373695435        9.1839924596
Pt            1.9640862753        1.0208391085       16.2255233577

     Writing output data file ./surface.save/
     NEW-OLD atomic charge density approx. for the potential

[...]

     Self-consistent Calculation

[...]

     total energy              =   -1896.19438252 Ry
     estimated scf accuracy    <       0.00000066 Ry

     iteration # 30     ecut=    30.00 Ry     beta= 0.30
     Davidson diagonalization with overlap
     ethr =  4.14E-10,  avg # of iterations =  1.0

[...]

     End of self-consistent calculation

[...]

          k =-0.2500 0.4330 0.0000 (  3907 PWs)   bands (ev):

[...]

          k = 0.5000 0.0000 0.0000 (  3907 PWs)   bands (ev):

   -40.1994 -40.1981 -40.1847 -40.1720 -40.1680 -40.1616 -40.1556 -40.0905
   -40.0819 -40.0649 -40.0462 -40.0409 -40.0379 -40.0360 -39.9062 -39.8960
   -39.8666 -39.8313 -39.8224 -39.8131 -39.7945 -39.7590 -39.7589 -39.6790
   -39.6789 -39.2254 -39.2253   6.9951   7.0108   7.1271   7.1927   7.2973
     7.3955   7.5644   7.5686   7.7910   7.8646   7.9562   8.0823   8.1844
     8.2736   8.3614   8.4875   8.5570   8.6911   8.7329   8.7829   8.9399
     9.0893   9.2405   9.2864   9.7102   9.7162   9.8311   9.8414  10.1976
    10.2682  10.3845  10.6326  10.7996  10.9542  11.0681  11.1368  11.2641
    11.5016  11.9040  12.3122  12.5888  12.6264  12.6492  12.7615  12.9227
    14.3660  14.4315  14.6192  14.9285  15.4047  16.0840  16.9009  17.8151
    18.7052  19.4836  19.5303  19.7946  19.9553  20.1612

     occupation numbers
     1.0000   1.0000   1.0000   1.0000   1.0000   1.0000   1.0000   1.0000
     1.0000   1.0000   1.0000   1.0000   1.0000   1.0000   1.0000   1.0000
     1.0000   1.0000   1.0000   1.0000   1.0000   1.0000   1.0000   1.0000
     1.0000   1.0000   1.0000   1.0000   1.0000   1.0000   1.0000   1.0000
     1.0000   1.0000   1.0000   1.0000   1.0000   1.0000   1.0000   1.0000
     1.0000   1.0000   1.0000   1.0000   1.0000   1.0000   1.0000   1.0000
     1.0000   1.0000   1.0000   1.0000   1.0000   1.0000   1.0000   1.0000
     1.0000   1.0000   1.0000   1.0000   1.0000   1.0000   1.0000   1.0000
     1.0000   1.0000   1.0000   0.9946   0.8934   0.6756   0.0003   0.0000
     0.0000   0.0000   0.0000   0.0000   0.0000   0.0000   0.0000   0.0000
     0.0000   0.0000   0.0000   0.0000   0.0000   0.0000

     the Fermi energy is    12.6623 ev

!    total energy              =   -1896.19438252 Ry
     estimated scf accuracy    <          7.2E-09 Ry
     smearing contrib. (-TS)   =      -0.00188004 Ry
     internal energy E=F+TS    =   -1896.19250249 Ry

     The total energy is F=E-TS. E is the sum of the following terms:
     one-electron contribution =  -10225.09382651 Ry
     hartree contribution      =    5192.44294169 Ry
     xc contribution           =    -511.66585137 Ry
     ewald contribution        =    3648.12423370 Ry

     convergence has been achieved in  30 iterations

     negative rho (up, down):  1.586E+00 0.000E+00

     Forces acting on atoms (cartesian axes, Ry/au):

     atom    1 type  1   force =    -0.00042905   -0.00042274   -0.00005841
     atom    2 type  1   force =     0.00077697   -0.00007073    0.00035483
     atom    3 type  1   force =    -0.00028383    0.00030298   -0.00007566
     atom    4 type  1   force =     0.00028146   -0.00030158    0.00009681
     atom    5 type  1   force =    -0.00077753    0.00006886   -0.00035702
     atom    6 type  1   force =     0.00043059    0.00042441    0.00004992
     atom    7 type  1   force =    -0.00073035    0.00006098   -0.00017988
     atom    8 type  1   force =    -0.00000087    0.00000011   -0.00000771
     atom    9 type  1   force =     0.00073261   -0.00006229    0.00017712
     The non-local contrib.  to forces
     atom    1 type  1   force =    -0.00670826    0.00062856   -0.00387469
     atom    2 type  1   force =     0.00829019    0.00187955    0.00209217
     atom    3 type  1   force =    -0.01261778    0.00388884    0.05261651
     atom    4 type  1   force =     0.01261195   -0.00388604   -0.05259412
     atom    5 type  1   force =    -0.00829243   -0.00188222   -0.00209631
     atom    6 type  1   force =     0.00671361   -0.00062422    0.00387552
     atom    7 type  1   force =    -0.00125083    0.00249605   -0.02178074
     atom    8 type  1   force =    -0.00000265   -0.00000174   -0.00000630
     atom    9 type  1   force =     0.00125598   -0.00249721    0.02179472
     The ionic contribution  to forces
     atom    1 type  1   force =    -0.14243798    0.02473473 -163.50066564
     atom    2 type  1   force =     0.18527351    0.05174811   81.49738320
     atom    3 type  1   force =    -0.23481063    0.06504901  322.24676765
     atom    4 type  1   force =     0.23468410   -0.06500689 -322.24077078
     atom    5 type  1   force =    -0.18532265   -0.05180002  -81.50107487
     atom    6 type  1   force =     0.14254976   -0.02462860  163.49949383
     atom    7 type  1   force =    -0.05098263    0.07729255 -245.38191872
     atom    8 type  1   force =    -0.00006188   -0.00004440   -0.00248753
     atom    9 type  1   force =     0.05110841   -0.07734449  245.38327286
     The local contribution  to forces
     atom    1 type  1   force =     0.14906230   -0.02562121  163.50606138
     atom    2 type  1   force =    -0.19371966   -0.05368067  -81.49991311
     atom    3 type  1   force =     0.25033872   -0.06974309 -322.29213963
     atom    4 type  1   force =    -0.25020803    0.06969870  322.28595436
     atom    5 type  1   force =     0.19376990    0.05373408   81.50372355
     atom    6 type  1   force =    -0.14917772    0.02551288 -163.50500564
     atom    7 type  1   force =     0.05071930   -0.07915872  245.40699526
     atom    8 type  1   force =     0.00006392    0.00004649    0.00251993
     atom    9 type  1   force =    -0.05084764    0.07921077 -245.40882444
     The core correction contribution to forces
     atom    1 type  1   force =    -0.00034628   -0.00016439   -0.00163043
     atom    2 type  1   force =     0.00092870   -0.00001784    0.00071528
     atom    3 type  1   force =    -0.00319524    0.00110929   -0.00725460
     atom    4 type  1   force =     0.00319466   -0.00110834    0.00725564
     atom    5 type  1   force =    -0.00092853    0.00001742   -0.00071451
     atom    6 type  1   force =     0.00034692    0.00016468    0.00162907
     atom    7 type  1   force =     0.00078546   -0.00056678   -0.00387182
     atom    8 type  1   force =    -0.00000027   -0.00000017   -0.00000033
     atom    9 type  1   force =    -0.00078553    0.00056718    0.00387349
     The Hubbard contrib.    to forces
     atom    1 type  1   force =     0.00000000    0.00000000    0.00000000
     atom    2 type  1   force =     0.00000000    0.00000000    0.00000000
     atom    3 type  1   force =     0.00000000    0.00000000    0.00000000
     atom    4 type  1   force =     0.00000000    0.00000000    0.00000000
     atom    5 type  1   force =     0.00000000    0.00000000    0.00000000
     atom    6 type  1   force =     0.00000000    0.00000000    0.00000000
     atom    7 type  1   force =     0.00000000    0.00000000    0.00000000
     atom    8 type  1   force =     0.00000000    0.00000000    0.00000000
     atom    9 type  1   force =     0.00000000    0.00000000    0.00000000
     The SCF correction term to forces
     atom    1 type  1   force =     0.00000118   -0.00000039    0.00005315
     atom    2 type  1   force =     0.00000425    0.00000017    0.00007947
     atom    3 type  1   force =     0.00000110   -0.00000102   -0.00006341
     atom    4 type  1   force =    -0.00000121    0.00000103    0.00025389
     atom    5 type  1   force =    -0.00000381   -0.00000036   -0.00019269
     atom    6 type  1   force =    -0.00000196   -0.00000029    0.00005933
     atom    7 type  1   force =    -0.00000164   -0.00000209    0.00039832
     atom    8 type  1   force =     0.00000003   -0.00000004   -0.00003129
     atom    9 type  1   force =     0.00000141    0.00000149    0.00006267

     Total force =     0.001925     Total SCF correction =     0.000531
     SCF correction compared to forces is large: reduce conv_thr to get better values

     Computing stress (Cartesian axis) and pressure

     negative rho (up, down):  1.586E+00 0.000E+00
          total   stress  (Ry/bohr**3)                   (kbar)     P=      -99.13
  -0.00091710  -0.00001076   0.00001570         -134.91       -1.58        2.31
  -0.00001076  -0.00090466   0.00001121           -1.58     -133.08        1.65
   0.00001570   0.00001121  -0.00019977            2.31        1.65      -29.39

     kinetic stress (kbar)  35291.94     12.99     50.35
                               12.99  35279.39      9.83
                               50.35      9.83  36020.59

     local   stress (kbar)**********    474.47    360.81
                              474.47**********    -48.24
                              360.81    -48.241052473.53

     nonloc. stress (kbar)   -247.30      5.73      6.89
                                5.73   -252.09     -2.40
                                6.89     -2.40   -177.00

     hartree stress (kbar) 522671.00   -161.59   -118.50
                             -161.59 522798.89     13.40
                             -118.50     13.40-506438.57

     exc-cor stress (kbar)  26103.87     -0.27      0.08
                               -0.27  26104.06      0.10
                                0.08      0.10  26102.30

     corecor stress (kbar) -35990.06      0.02     -1.89
                                0.02 -35989.89     -0.74
                               -1.89     -0.74 -36020.62

     ewald   stress (kbar) 475219.16   -332.93   -295.43
                             -332.93 475484.91     29.70
                             -295.43     29.70-571989.61

     hubbard stress (kbar)      0.00      0.00      0.00
                                0.00      0.00      0.00
                                0.00      0.00      0.00

     DFT-D   stress (kbar)      0.00      0.00      0.00
                                0.00      0.00      0.00
                                0.00      0.00      0.00

     XDM     stress (kbar)      0.00      0.00      0.00
                                0.00      0.00      0.00
                                0.00      0.00      0.00

     dft-nl  stress (kbar)      0.00      0.00      0.00
                                0.00      0.00      0.00
                                0.00      0.00      0.00

     TS-vdW  stress (kbar)      0.00      0.00      0.00
                                0.00      0.00      0.00
                                0.00      0.00      0.00

     Energy error            =      2.0E-05
     Gradient error          =      7.8E-04

     bfgs converged in  31 scf cycles and  30 bfgs steps
     (criteria: energy <  1.0E-04 Ry, force <  1.0E-03 Ry/Bohr)

     End of BFGS Geometry Optimization

     Final energy   =   -1896.1943825223 Ry

     File ./surface.bfgs deleted, as requested
Begin final coordinates

ATOMIC_POSITIONS (angstrom)
Pt            0.5599830261        1.7112220716        4.4876458449
Pt            0.3392756511        1.7549092281       11.5361844368
Pt            0.8066165083        1.8358410060       18.6301482827
Pt            0.1307691119        0.0388258815       -0.2623064160
Pt            0.5981063091        0.1198043731        6.8317844072
Pt            0.3772839547        0.1634021686       13.8802890794
Pt            1.7851663022        0.8537866190        2.1423785477
Pt            1.8747128614        0.9373695435        9.1839924596
Pt            1.9640862753        1.0208391085       16.2255233577
End final coordinates

     Writing output data file ./surface.save/

     General routines

     Parallel routines

   This run was terminated on:   4: 5:25  10Dec2021

   JOB DONE.