     Program PWSCF v.6.7MaX starts on  6Dec2021 at 19: 3: 1

     R & G space division:  proc/nbgrp/npool/nimage =      64
     Reading input from ag_surface.111.qe.in

     Current dimensions of program PWSCF are:
     Max number of different atomic species (ntypx) = 10
     Max number of k-points (npk) =  40000
     Max angular momentum in pseudopotentials (lmaxx) =  3

     Found symmetry operation: I + ( -0.0000  0.3333  0.0000)
     This is a supercell, fractional translations are disabled

     bravais-lattice index     =           14
     lattice parameter (alat)  =      16.6785  a.u.
     unit-cell volume          =    7833.0029 (a.u.)^3
     number of atoms/cell      =           27
     number of atomic types    =            1
     number of electrons       =       513.00
     number of Kohn-Sham states=          308
     kinetic-energy cutoff     =      30.0000  Ry
     charge density cutoff     =     300.0000  Ry
     scf convergence threshold =      1.0E-06
     mixing beta               =       0.3000
     number of iterations used =            8  plain     mixing
     energy convergence thresh.=      1.0E-04
     force convergence thresh. =      1.0E-03
     Exchange-correlation=  SLA  PW   PBX  PBC
                           (   1   4   3   4   0   0   0)
     nstep                     =           50

     celldm(1)=  16.678458  celldm(2)=   1.000000  celldm(3)=   1.949530
     celldm(4)=   0.000000  celldm(5)=   0.000000  celldm(6)=  -0.500000

     crystal axes: (cart. coord. in units of alat)
               a(1) = (   1.000000   0.000000   0.000000 )
               a(2) = (  -0.500000   0.866025   0.000000 )
               a(3) = (   0.000000   0.000000   1.949530 )

     reciprocal axes: (cart. coord. in units 2 pi/alat)
               b(1) = (  1.000000  0.577350 -0.000000 )
               b(2) = (  0.000000  1.154701  0.000000 )
               b(3) = (  0.000000 -0.000000  0.512944 )

     PseudoPot. # 1 for Ag read from file:
     /expanse/lustre/projects/csd622/tpascal/nano110/qe/pseudo/ag_pbe_v1.4.uspp.F.UPF
     MD5 check sum: d66d668201baa78d5eb5b04ef7011058
     Pseudo is Ultrasoft + core correction, Zval = 19.0
     Generated by new atomic code, or converted to UPF format
     Using radial grid of  887 points,  6 beta functions with:
                l(1) =   0
                l(2) =   0
                l(3) =   1
                l(4) =   1
                l(5) =   2
                l(6) =   2
     Q(r) pseudized with  6 coefficients,  rinner =    1.300   1.300   1.300
                                                       1.300   1.300

     atomic species   valence    mass     pseudopotential
        Ag            19.00   107.86820     Ag( 1.00)

      6 Sym. Ops. (no inversion) found

                                    s                        frac. trans.

      isym =  1     identity

 cryst.   s( 1) = (     1          0          0      )
                  (     0          1          0      )
                  (     0          0          1      )

 cart.    s( 1) = (  1.0000000  0.0000000  0.0000000 )
                  (  0.0000000  1.0000000  0.0000000 )
                  (  0.0000000  0.0000000  1.0000000 )

      isym =  2     120 deg rotation - cryst. axis [0,0,1]

[...]

      isym =  3     120 deg rotation - cryst. axis [0,0,-1]

[...]

      isym =  4     inv. 180 deg rotation - cart. axis [1,0,0]

[...]

      isym =  5     inv. 180 deg rotation - cryst. axis [0,1,0]

[...]

      isym =  6     inv. 180 deg rotation - cryst. axis [1,1,0]

 cryst.   s( 6) = (     0         -1          0      )
                  (    -1          0          0      )
                  (     0          0          1      )

 cart.    s( 6) = (  0.5000000 -0.8660254  0.0000000 )
                  ( -0.8660254 -0.5000000  0.0000000 )
                  (  0.0000000  0.0000000  1.0000000 )

     point group C_3v (3m)
     there are  3 classes
     the character table:

       E     2C3   3s_v
A_1    1.00  1.00  1.00
A_2    1.00  1.00 -1.00
E      2.00 -1.00  0.00

     the symmetry operations in each class and the name of the first element:

     E        1
          identity
     2C3      2    3
          120 deg rotation - cryst. axis [0,0,1]
     3s_v     4    5    6
          inv. 180 deg rotation - cart. axis [1,0,0]

   Cartesian axes

     site n.     atom                  positions (alat units)
         1           Ag  tau(   1) = (  -0.0000002   0.1924501   0.5443311  )
         2           Ag  tau(   2) = (   0.0000000   0.0000000   0.0000000  )
         3           Ag  tau(   3) = (   0.1666668   0.0962249   0.2721651  )
         4           Ag  tau(   4) = (  -0.1666668   0.4811251   0.5443311  )
         5           Ag  tau(   5) = (  -0.1666666   0.2886750   0.0000000  )
         6           Ag  tau(   6) = (   0.0000002   0.3848999   0.2721651  )
         7           Ag  tau(   7) = (  -0.3333333   0.7698001   0.5443311  )
         8           Ag  tau(   8) = (  -0.3333332   0.5773500   0.0000000  )
         9           Ag  tau(   9) = (  -0.1666664   0.6735749   0.2721651  )
        10           Ag  tau(  10) = (   0.3333330   0.1924501   0.5443311  )
        11           Ag  tau(  11) = (   0.3333332   0.0000000   0.0000000  )
        12           Ag  tau(  12) = (   0.4999999   0.0962249   0.2721651  )
        13           Ag  tau(  13) = (   0.1666664   0.4811251   0.5443311  )
        14           Ag  tau(  14) = (   0.1666666   0.2886750   0.0000000  )
        15           Ag  tau(  15) = (   0.3333333   0.3848999   0.2721651  )
        16           Ag  tau(  16) = (  -0.0000002   0.7698001   0.5443311  )
        17           Ag  tau(  17) = (   0.0000000   0.5773500   0.0000000  )
        18           Ag  tau(  18) = (   0.1666668   0.6735749   0.2721651  )
        19           Ag  tau(  19) = (   0.6666662   0.1924501   0.5443311  )
        20           Ag  tau(  20) = (   0.6666664   0.0000000   0.0000000  )
        21           Ag  tau(  21) = (   0.8333331   0.0962249   0.2721651  )
        22           Ag  tau(  22) = (   0.4999996   0.4811251   0.5443311  )
        23           Ag  tau(  23) = (   0.4999998   0.2886750   0.0000000  )
        24           Ag  tau(  24) = (   0.6666665   0.3848999   0.2721651  )
        25           Ag  tau(  25) = (   0.3333330   0.7698001   0.5443311  )
        26           Ag  tau(  26) = (   0.3333332   0.5773500   0.0000000  )
        27           Ag  tau(  27) = (   0.4999999   0.6735749   0.2721651  )

   Crystallographic axes

     site n.     atom                  positions (cryst. coord.)
         1           Ag  tau(   1) = (  0.1111109  0.2222222  0.2792114  )
         2           Ag  tau(   2) = (  0.0000000  0.0000000  0.0000000  )
         3           Ag  tau(   3) = (  0.2222222  0.1111109  0.1396055  )
         4           Ag  tau(   4) = (  0.1111109  0.5555554  0.2792114  )
         5           Ag  tau(   5) = ( -0.0000000  0.3333332  0.0000000  )
         6           Ag  tau(   6) = (  0.2222222  0.4444441  0.1396055  )
         7           Ag  tau(   7) = (  0.1111109  0.8888886  0.2792114  )
         8           Ag  tau(   8) = ( -0.0000000  0.6666664  0.0000000  )
         9           Ag  tau(   9) = (  0.2222222  0.7777773  0.1396055  )
        10           Ag  tau(  10) = (  0.4444441  0.2222222  0.2792114  )
        11           Ag  tau(  11) = (  0.3333332  0.0000000  0.0000000  )
        12           Ag  tau(  12) = (  0.5555554  0.1111109  0.1396055  )
        13           Ag  tau(  13) = (  0.4444441  0.5555554  0.2792114  )
        14           Ag  tau(  14) = (  0.3333332  0.3333332  0.0000000  )
        15           Ag  tau(  15) = (  0.5555554  0.4444441  0.1396055  )
        16           Ag  tau(  16) = (  0.4444441  0.8888886  0.2792114  )
        17           Ag  tau(  17) = (  0.3333332  0.6666664  0.0000000  )
        18           Ag  tau(  18) = (  0.5555554  0.7777773  0.1396055  )
        19           Ag  tau(  19) = (  0.7777773  0.2222222  0.2792114  )
        20           Ag  tau(  20) = (  0.6666664  0.0000000  0.0000000  )
        21           Ag  tau(  21) = (  0.8888886  0.1111109  0.1396055  )
        22           Ag  tau(  22) = (  0.7777773  0.5555554  0.2792114  )
        23           Ag  tau(  23) = (  0.6666664  0.3333332  0.0000000  )
        24           Ag  tau(  24) = (  0.8888886  0.4444441  0.1396055  )
        25           Ag  tau(  25) = (  0.7777773  0.8888886  0.2792114  )
        26           Ag  tau(  26) = (  0.6666664  0.6666664  0.0000000  )
        27           Ag  tau(  27) = (  0.8888886  0.7777773  0.1396055  )

     number of k points=     4  Gaussian smearing, width (Ry)=  0.0030
                       cart. coord. in units 2pi/alat
        k(    1) = (   0.0000000   0.0000000   0.0000000), wk =   0.1250000
        k(    2) = (   0.0000000   0.2886751   0.0000000), wk =   0.7500000
        k(    3) = (   0.0000000  -0.5773503   0.0000000), wk =   0.3750000
        k(    4) = (   0.2500000   0.4330127   0.0000000), wk =   0.7500000

                       cryst. coord.
        k(    1) = (   0.0000000   0.0000000   0.0000000), wk =   0.1250000
        k(    2) = (   0.0000000   0.2500000   0.0000000), wk =   0.7500000
        k(    3) = (   0.0000000  -0.5000000   0.0000000), wk =   0.3750000
        k(    4) = (   0.2500000   0.2500000   0.0000000), wk =   0.7500000

     Initial potential from superposition of free atoms

     starting charge  499.49872, renormalised to  513.00000

     negative rho (up, down):  6.378E-03 0.000E+00
     Starting wfcs are  351 randomized atomic wfcs

     Self-consistent Calculation

     iteration #  1     ecut=    30.00 Ry     beta= 0.30
     Davidson diagonalization with overlap
     ethr =  1.00E-02,  avg # of iterations =  6.2

     negative rho (up, down):  2.107E-04 0.000E+00

     total energy              =   -7972.24684797 Ry
     estimated scf accuracy    <      42.13897250 Ry

[...]

     End of self-consistent calculation

          k = 0.0000 0.0000 0.0000 ( 21795 PWs)   bands (ev):

   -87.6517 -87.6451 -87.6451 -87.6451 -87.6450 -87.6450 -87.6449 -87.6417
   -87.6417 -87.4276 -87.4276 -87.4212 -87.4211 -87.4211 -87.4211 -87.4211
   -87.4211 -87.4211 -87.4211 -87.4210 -87.4210 -87.4210 -87.4210 -87.4178
   -87.4178 -87.4177 -87.4177 -51.1414 -51.1414 -51.1414 -51.1413 -51.1413
   -51.1413 -51.1367 -51.1367 -51.1367 -51.1367 -51.1274 -51.1152 -51.1152
   -51.1152 -51.1151 -51.1151 -51.1150 -51.1093 -51.1093 -51.0851 -51.0850
   -51.0850 -51.0850 -51.0849 -51.0849 -51.0664 -51.0664 -50.9184 -50.9184
   -50.9184 -50.9183 -50.9183 -50.9183 -50.9158 -50.9158 -50.9158 -50.9157
   -50.9157 -50.9157 -50.9141 -50.9141 -50.9135 -50.9135 -50.9134 -50.9134
   -50.9104 -50.9104 -50.8862 -50.8785 -50.8770 -50.8769 -50.8769 -50.8769
   -50.8769 -50.8768 -50.8746 -50.8746 -50.8746 -50.8746 -50.8746 -50.8745
   -50.8729 -50.8729 -50.8729 -50.8729 -50.8636 -50.8636 -50.8636 -50.8636
   -50.8635 -50.8635 -50.8631 -50.8631 -50.8631 -50.8630 -50.8630 -50.8630
   -50.8452 -50.8452 -50.8450 -50.8450  -2.5779  -1.6450  -1.5239  -1.4542
    -1.4542  -1.4542  -1.4542  -1.4542  -1.4541  -1.2720  -1.2720  -1.2719
[...]
     atom   11 type  1   force =    -0.00000271   -0.00000588   -0.16027201
     atom   12 type  1   force =     0.00000000    0.00000474   -0.00004062
     atom   13 type  1   force =     0.00000779   -0.00000450    0.16033884
     atom   14 type  1   force =    -0.00000645    0.00000059   -0.16027201
     atom   15 type  1   force =     0.00000411   -0.00000237   -0.00004062
     atom   16 type  1   force =     0.00000000    0.00000899    0.16033884
     atom   17 type  1   force =     0.00000000   -0.00000000   -0.16027833
     atom   18 type  1   force =    -0.00000067   -0.00000039   -0.00004857
     atom   19 type  1   force =    -0.00000258    0.00000149    0.16034282
     atom   20 type  1   force =     0.00000271   -0.00000588   -0.16027201
     atom   21 type  1   force =    -0.00000049    0.00000028   -0.00004080
     atom   22 type  1   force =     0.00000000   -0.00000298    0.16034282
     atom   23 type  1   force =     0.00000000    0.00000000   -0.16026465
     atom   24 type  1   force =    -0.00000411   -0.00000237   -0.00004062
     atom   25 type  1   force =     0.00000959    0.00000553    0.16033837
     atom   26 type  1   force =    -0.00000373    0.00000529   -0.16027201
     atom   27 type  1   force =     0.00000000   -0.00000056   -0.00004080
     The ionic contribution  to forces
     atom    1 type  1   force =    -0.00009300   -0.00321006  197.97553667
     atom    2 type  1   force =    -0.00007314   -0.00014645 -197.97040356
     atom    3 type  1   force =    -0.00269215   -0.00167753   -0.00429470
     atom    4 type  1   force =    -0.00134479   -0.00076303  197.97494739
     atom    5 type  1   force =     0.00230485   -0.00115808 -197.97071233
     atom    6 type  1   force =    -0.00012341   -0.00201344   -0.00501662
     atom    7 type  1   force =    -0.00272596    0.00156868  197.97548945
     atom    8 type  1   force =     0.00014864    0.00270335 -197.97070496
     atom    9 type  1   force =    -0.00182175    0.00105986   -0.00505719
     atom   10 type  1   force =    -0.00082856   -0.00060809  197.97478870
     atom   11 type  1   force =    -0.00216648   -0.00163475 -197.97070496
     atom   12 type  1   force =     0.00002517   -0.00043001   -0.00435544
     atom   13 type  1   force =     0.00124306   -0.00071163  197.97499956
     atom   14 type  1   force =    -0.00240010   -0.00113856 -197.97075953
     atom   15 type  1   force =    -0.00025073    0.00017955   -0.00439603
     atom   16 type  1   force =    -0.00000639    0.00154403  197.97494497
     atom   17 type  1   force =    -0.00002444    0.00010640 -197.96963187
     atom   18 type  1   force =     0.00171449    0.00113769   -0.00507614
     atom   19 type  1   force =     0.00094790   -0.00054815  197.97477261
     atom   20 type  1   force =     0.00225572   -0.00157137 -197.97071233
     atom   21 type  1   force =     0.00265958   -0.00157427   -0.00430415
     atom   22 type  1   force =     0.00011156    0.00102721  197.97477998
     atom   23 type  1   force =     0.00010185    0.00003348 -197.97012362
     atom   24 type  1   force =     0.00035771    0.00020498   -0.00438654
     atom   25 type  1   force =     0.00273268    0.00168001  197.97552552
     atom   26 type  1   force =    -0.00013410    0.00278625 -197.97075954
     atom   27 type  1   force =     0.00008181    0.00315392   -0.00438532
     The local contribution  to forces
     atom    1 type  1   force =     0.00056526    0.00371821 -198.13467224
     atom    2 type  1   force =    -0.00000000   -0.00000000  198.12954349
     atom    3 type  1   force =     0.00286405    0.00230307    0.00433074
     atom    4 type  1   force =     0.00188596    0.00132360 -198.13410097
     atom    5 type  1   force =    -0.00278530    0.00180633  198.12985283
     atom    6 type  1   force =    -0.00056250    0.00323485    0.00505871
     atom    7 type  1   force =     0.00329941   -0.00101746 -198.13467224
     atom    8 type  1   force =    -0.00059687   -0.00198414  198.12985283
     atom    9 type  1   force =     0.00119293    0.00019437    0.00505871
     atom   10 type  1   force =     0.00219726    0.00061590 -198.13391888
     atom   11 type  1   force =     0.00295697    0.00150898  198.12985283
     atom   12 type  1   force =     0.00020229    0.00111393    0.00438315
     atom   13 type  1   force =    -0.00075544    0.00132360 -198.13410097
     atom   14 type  1   force =     0.00278530    0.00180633  198.12985283
     atom   15 type  1   force =     0.00050334    0.00059250    0.00438315
     atom   16 type  1   force =     0.00056526   -0.00096391 -198.13410097
     atom   17 type  1   force =     0.00000000    0.00088745  198.12876081
     atom   18 type  1   force =    -0.00231793    0.00019437    0.00505871
     atom   19 type  1   force =     0.00047033    0.00061589 -198.13391889
     atom   20 type  1   force =    -0.00141989    0.00150898  198.12985283
     atom   21 type  1   force =    -0.00245948    0.00230307    0.00433074
     atom   22 type  1   force =     0.00133380   -0.00087967 -198.13391889
     atom   23 type  1   force =     0.00076854    0.00044372  198.12922625
     atom   24 type  1   force =    -0.00009877    0.00059250    0.00438315
     atom   25 type  1   force =    -0.00216889   -0.00101746 -198.13467225
     atom   26 type  1   force =     0.00059687   -0.00198414  198.12985283
     atom   27 type  1   force =     0.00020229   -0.00230723    0.00433074
     The core correction contribution to forces
     atom    1 type  1   force =     0.00000037    0.00000042   -0.00115857
     atom    2 type  1   force =    -0.00000000   -0.00000000    0.00115760
     atom    3 type  1   force =     0.00000016    0.00000053    0.00000327
     atom    4 type  1   force =     0.00000041    0.00000039   -0.00115857
     atom    5 type  1   force =    -0.00000029    0.00000042    0.00115763
     atom    6 type  1   force =    -0.00000038    0.00000082    0.00000334
     atom    7 type  1   force =     0.00000041    0.00000035   -0.00115857
     atom    8 type  1   force =    -0.00000028    0.00000041    0.00115763
     atom    9 type  1   force =    -0.00000036    0.00000080    0.00000334
     atom   10 type  1   force =     0.00000086    0.00000007   -0.00115859
     atom   11 type  1   force =     0.00000051    0.00000004    0.00115763
     atom   12 type  1   force =     0.00000013    0.00000050    0.00000326
     atom   13 type  1   force =     0.00000033    0.00000039   -0.00115857
     atom   14 type  1   force =     0.00000029    0.00000042    0.00115763
     atom   15 type  1   force =     0.00000013    0.00000051    0.00000326
     atom   16 type  1   force =     0.00000037    0.00000033   -0.00115857
     atom   17 type  1   force =     0.00000000    0.00000058    0.00115763
     atom   18 type  1   force =    -0.00000039    0.00000080    0.00000334
     atom   19 type  1   force =     0.00000089    0.00000007   -0.00115859
     atom   20 type  1   force =     0.00000050    0.00000004    0.00115763
     atom   21 type  1   force =     0.00000011    0.00000053    0.00000327
     atom   22 type  1   force =     0.00000088    0.00000010   -0.00115859
     atom   23 type  1   force =     0.00000051    0.00000029    0.00115759
     atom   24 type  1   force =     0.00000014    0.00000051    0.00000326
     atom   25 type  1   force =     0.00000033    0.00000035   -0.00115857
     atom   26 type  1   force =     0.00000028    0.00000041    0.00115763
     atom   27 type  1   force =     0.00000013    0.00000048    0.00000327
     The Hubbard contrib.    to forces
     atom    1 type  1   force =     0.00000000    0.00000000    0.00000000
     atom    2 type  1   force =     0.00000000    0.00000000    0.00000000
     atom    3 type  1   force =     0.00000000    0.00000000    0.00000000
     atom    4 type  1   force =     0.00000000    0.00000000    0.00000000
     atom    5 type  1   force =     0.00000000    0.00000000    0.00000000
     atom    6 type  1   force =     0.00000000    0.00000000    0.00000000
     atom    7 type  1   force =     0.00000000    0.00000000    0.00000000
     atom    8 type  1   force =     0.00000000    0.00000000    0.00000000
     atom    9 type  1   force =     0.00000000    0.00000000    0.00000000
     atom   10 type  1   force =     0.00000000    0.00000000    0.00000000
     atom   11 type  1   force =     0.00000000    0.00000000    0.00000000
     atom   12 type  1   force =     0.00000000    0.00000000    0.00000000
     atom   13 type  1   force =     0.00000000    0.00000000    0.00000000
     atom   14 type  1   force =     0.00000000    0.00000000    0.00000000
     atom   15 type  1   force =     0.00000000    0.00000000    0.00000000
     atom   16 type  1   force =     0.00000000    0.00000000    0.00000000
     atom   17 type  1   force =     0.00000000    0.00000000    0.00000000
     atom   18 type  1   force =     0.00000000    0.00000000    0.00000000
     atom   19 type  1   force =     0.00000000    0.00000000    0.00000000
     atom   20 type  1   force =     0.00000000    0.00000000    0.00000000
     atom   21 type  1   force =     0.00000000    0.00000000    0.00000000
     atom   22 type  1   force =     0.00000000    0.00000000    0.00000000
     atom   23 type  1   force =     0.00000000    0.00000000    0.00000000
     atom   24 type  1   force =     0.00000000    0.00000000    0.00000000
     atom   25 type  1   force =     0.00000000    0.00000000    0.00000000
     atom   26 type  1   force =     0.00000000    0.00000000    0.00000000
     atom   27 type  1   force =     0.00000000    0.00000000    0.00000000
     The SCF correction term to forces
     atom    1 type  1   force =    -0.00000000    0.00003858    0.00003433
     atom    2 type  1   force =     0.00000000   -0.00000000   -0.00004900
     atom    3 type  1   force =     0.00005878    0.00003394    0.00001082
     atom    4 type  1   force =    -0.00001222   -0.00000706    0.00001944
     atom    5 type  1   force =    -0.00003582    0.00003057   -0.00003062
     atom    6 type  1   force =     0.00000000    0.00003172    0.00000884
     atom    7 type  1   force =     0.00003341   -0.00001929    0.00003433
     atom    8 type  1   force =     0.00000856   -0.00004631   -0.00003063
     atom    9 type  1   force =     0.00002747   -0.00001586    0.00000884
     atom   10 type  1   force =     0.00004574    0.00002641    0.00001533
     atom   11 type  1   force =     0.00004439    0.00001574   -0.00003062
     atom   12 type  1   force =     0.00000000    0.00003612    0.00001079
     atom   13 type  1   force =     0.00001222   -0.00000706    0.00001944
     atom   14 type  1   force =     0.00003582    0.00003057   -0.00003062
     atom   15 type  1   force =     0.00003128   -0.00001806    0.00001079
     atom   16 type  1   force =    -0.00000000    0.00001411    0.00001944
     atom   17 type  1   force =     0.00000000   -0.00000000   -0.00002804
     atom   18 type  1   force =    -0.00002747   -0.00001586    0.00000884
     atom   19 type  1   force =    -0.00004574    0.00002641    0.00001534
     atom   20 type  1   force =    -0.00004439    0.00001574   -0.00003063
     atom   21 type  1   force =    -0.00005878    0.00003394    0.00001082
     atom   22 type  1   force =    -0.00000000   -0.00005282    0.00001533
     atom   23 type  1   force =    -0.00000000    0.00000000   -0.00001487
     atom   24 type  1   force =    -0.00003127   -0.00001806    0.00001079
     atom   25 type  1   force =    -0.00003341   -0.00001929    0.00003433
     atom   26 type  1   force =    -0.00000856   -0.00004631   -0.00003063
     atom   27 type  1   force =     0.00000000   -0.00006787    0.00001083

     Total force =     0.000203     Total SCF correction =     0.000251
     SCF correction compared to forces is large: reduce conv_thr to get better values

     Computing stress (Cartesian axis) and pressure

     negative rho (up, down):  5.843E-03 0.000E+00
          total   stress  (Ry/bohr**3)                   (kbar)     P=      -46.68
  -0.00033601   0.00000000   0.00000000          -49.43        0.00        0.00
   0.00000000  -0.00033601   0.00000000            0.00      -49.43        0.00
   0.00000000   0.00000000  -0.00027993            0.00        0.00      -41.18

     kinetic stress (kbar)  22651.65     -0.00      0.00
                               -0.00  22651.65     -0.00
                                0.00     -0.00  22714.52

     local   stress (kbar)-508910.26     -0.00     -0.00
                               -0.00-508910.26      0.00
                               -0.00      0.00 512678.97

     nonloc. stress (kbar)   2661.78     -0.00      0.00
                                0.00   2661.78      0.00
                                0.00      0.00   2636.13

     hartree stress (kbar) 264027.47     -0.00      0.00
                               -0.00 264027.47     -0.00
                                0.00     -0.00-238602.80

     exc-cor stress (kbar)  -4084.01     -0.00     -0.00
                               -0.00  -4084.01      0.00
                               -0.00      0.00  -4090.51

     corecor stress (kbar)   -552.73     -0.00      0.00
                               -0.00   -552.73     -0.00
                                0.00     -0.00   -552.64

     ewald   stress (kbar) 224156.67      0.00      0.00
                                0.00 224156.67     -0.00
                                0.00     -0.00-294824.85

     hubbard stress (kbar)      0.00      0.00      0.00
                                0.00      0.00      0.00
                                0.00      0.00      0.00

     DFT-D   stress (kbar)      0.00      0.00      0.00
                                0.00      0.00      0.00
                                0.00      0.00      0.00

     XDM     stress (kbar)      0.00      0.00      0.00
                                0.00      0.00      0.00
                                0.00      0.00      0.00

     dft-nl  stress (kbar)      0.00      0.00      0.00
                                0.00      0.00      0.00
                                0.00      0.00      0.00

     TS-vdW  stress (kbar)      0.00      0.00      0.00
                                0.00      0.00      0.00
                                0.00      0.00      0.00

     Energy error            =      4.8E-06
     Gradient error          =      5.7E-05

     bfgs converged in   8 scf cycles and   7 bfgs steps
     (criteria: energy <  1.0E-04 Ry, force <  1.0E-03 Ry/Bohr)

     End of BFGS Geometry Optimization

     Final energy   =   -7981.1180894731 Ry

     File ./surface.bfgs deleted, as requested
Begin final coordinates

ATOMIC_POSITIONS (angstrom)
Ag           -0.0000014710        1.6985695288        4.7627314408
Ag           -0.0000000000       -0.0000000000        0.0413594788
Ag            1.4709903123        0.8492749542        2.4021882087
Ag           -1.4709655322        4.2463496900        4.7626982431
Ag           -1.4710005463        2.5478158453        0.0413802876
Ag            0.0000014710        3.3970767888        2.4021951186
Ag           -2.9419258445        6.7941320156        4.7627314408
Ag           -2.9419550269        5.0955837414        0.0413802876
Ag           -1.4709709958        5.9448758378        2.4021951186
Ag            2.9419591170        1.6985425867        4.7626974913
Ag            2.9419735194        0.0000159194        0.0413802876
Ag            4.4129294710        0.8492638200        2.4021817425
Ag            1.4709625902        4.2463496900        4.7626982431
Ag            1.4710005463        2.5478158453        0.0413802876
Ag            2.9419502491        3.3970745692        2.4021817425
Ag           -0.0000014710        6.7941341800        4.7626982431
Ag            0.0000000000        5.0956103374        0.0414109342
Ag            1.4709739378        5.9448758378        2.4021951186
Ag            5.8838939410        1.6985425867        4.7626974913
Ag            5.8838824806        0.0000159194        0.0413802876
Ag            7.3548686297        0.8492749542        2.4021882087
Ag            4.4129265290        4.2463328806        4.7626974913
Ag            4.4129280000        2.5478051687        0.0414001267
Ag            5.8839086929        3.3970745692        2.4021817425
Ag            2.9419229025        6.7941320156        4.7627314408
Ag            2.9419550269        5.0955837414        0.0413802876
Ag            4.4129294710        5.9448630499        2.4021882087
End final coordinates

     Writing output data file ./surface.save/

     General routines

     Parallel routines

   This run was terminated on:  19: 7:15   6Dec2021

   JOB DONE.