     Program PWSCF v.6.7MaX starts on 10Dec2021 at  3:54:19

     R & G space division:  proc/nbgrp/npool/nimage =      16
     Reading input from pt_surface.100.qe.7656473.1_1_3.in

     Current dimensions of program PWSCF are:
     Max number of different atomic species (ntypx) = 10
     Max number of k-points (npk) =  40000
     Max angular momentum in pseudopotentials (lmaxx) =  3

     Found symmetry operation: I + ( -0.5000 -0.5000  0.0000)
     This is a supercell, fractional translations are disabled

     bravais-lattice index     =            8
     lattice parameter (alat)  =       7.5150  a.u.
     unit-cell volume          =    2340.4659 (a.u.)^3
     number of atoms/cell      =           12
     number of atomic types    =            1
     number of electrons       =       192.00
     number of Kohn-Sham states=          115
     kinetic-energy cutoff     =      30.0000  Ry
     charge density cutoff     =     300.0000  Ry
     scf convergence threshold =      1.0E-06
     mixing beta               =       0.3000
     number of iterations used =            8  plain     mixing
     energy convergence thresh.=      1.0E-04
     force convergence thresh. =      1.0E-03
     Exchange-correlation=  SLA  PW   PBX  PBC
                           (   1   4   3   4   0   0   0)
     nstep                     =           50

     celldm(1)=   7.515006  celldm(2)=   1.000000  celldm(3)=   5.514604
     celldm(4)=   0.000000  celldm(5)=   0.000000  celldm(6)=   0.000000

     crystal axes: (cart. coord. in units of alat)
               a(1) = (   1.000000   0.000000   0.000000 )
               a(2) = (   0.000000   1.000000   0.000000 )
               a(3) = (   0.000000   0.000000   5.514604 )

     reciprocal axes: (cart. coord. in units 2 pi/alat)
               b(1) = (  1.000000  0.000000  0.000000 )
               b(2) = (  0.000000  1.000000  0.000000 )
               b(3) = (  0.000000  0.000000  0.181337 )

     PseudoPot. # 1 for Pt read from file:
     /expanse/lustre/projects/csd622/tpascal/nano110/qe/pseudo/pt_pbe_v1.4.uspp.F.UPF
     MD5 check sum: f09d6de1a584b5a045c4fc126da2d0c4
     Pseudo is Ultrasoft + core correction, Zval = 16.0
     Generated by new atomic code, or converted to UPF format
     Using radial grid of  985 points,  6 beta functions with:
                l(1) =   0
                l(2) =   0
                l(3) =   1
                l(4) =   1
                l(5) =   2
                l(6) =   2
     Q(r) pseudized with  8 coefficients,  rinner =    1.300   1.300   1.300
                                                       1.300   1.300

     atomic species   valence    mass     pseudopotential
        Pt            16.00   195.08400     Pt( 1.00)

      8 Sym. Ops. (no inversion) found

                                    s                        frac. trans.

      isym =  1     identity

 cryst.   s( 1) = (     1          0          0      )
                  (     0          1          0      )
                  (     0          0          1      )

 cart.    s( 1) = (  1.0000000  0.0000000  0.0000000 )
                  (  0.0000000  1.0000000  0.0000000 )
                  (  0.0000000  0.0000000  1.0000000 )

      isym =  2     180 deg rotation - cart. axis [0,0,1]

[...]

      isym =  4      90 deg rotation - cart. axis [0,0,1]

[...]

      isym =  5     inv. 180 deg rotation - cart. axis [0,1,0]

[...]

      isym =  8     inv. 180 deg rotation - cart. axis [1,-1,0]

 cryst.   s( 8) = (     0          1          0      )
                  (     1          0          0      )
                  (     0          0          1      )

 cart.    s( 8) = (  0.0000000  1.0000000  0.0000000 )
                  (  1.0000000  0.0000000  0.0000000 )
                  (  0.0000000  0.0000000  1.0000000 )

     point group C_4v (4mm)
     there are  5 classes
     the character table:

       E     2C4   C2    2s_v  2s_d
A_1    1.00  1.00  1.00  1.00  1.00
A_2    1.00  1.00  1.00 -1.00 -1.00
B_1    1.00 -1.00  1.00  1.00 -1.00
B_2    1.00 -1.00  1.00 -1.00  1.00
E      2.00  0.00 -2.00  0.00  0.00

     the symmetry operations in each class and the name of the first element:

     E        1
          identity
     2C4      3    4
           90 deg rotation - cart. axis [0,0,-1]
     C2       2
          180 deg rotation - cart. axis [0,0,1]
     2s_v     5    6
          inv. 180 deg rotation - cart. axis [0,1,0]
     2s_d     7    8
          inv. 180 deg rotation - cart. axis [1,1,0]

   Cartesian axes

     site n.     atom                  positions (alat units)
         1           Pt  tau(   1) = (   0.0000000   0.0000000   0.0000000  )
         2           Pt  tau(   2) = (   0.0000000   0.0000000   1.0000000  )
         3           Pt  tau(   3) = (   0.0000000   0.0000000   2.0000000  )
         4           Pt  tau(   4) = (   0.0000000   0.5000000   0.5000000  )
         5           Pt  tau(   5) = (   0.0000000   0.5000000   1.5000000  )
         6           Pt  tau(   6) = (   0.0000000   0.5000000   2.5000000  )
         7           Pt  tau(   7) = (   0.5000000   0.0000000   0.5000000  )
         8           Pt  tau(   8) = (   0.5000000   0.0000000   1.5000000  )
         9           Pt  tau(   9) = (   0.5000000   0.0000000   2.5000000  )
        10           Pt  tau(  10) = (   0.5000000   0.5000000   0.0000000  )
        11           Pt  tau(  11) = (   0.5000000   0.5000000   1.0000000  )
        12           Pt  tau(  12) = (   0.5000000   0.5000000   2.0000000  )

   Crystallographic axes

     site n.     atom                  positions (cryst. coord.)
         1           Pt  tau(   1) = (  0.0000000  0.0000000  0.0000000  )
         2           Pt  tau(   2) = (  0.0000000  0.0000000  0.1813367  )
         3           Pt  tau(   3) = (  0.0000000  0.0000000  0.3626734  )
         4           Pt  tau(   4) = (  0.0000000  0.5000000  0.0906683  )
         5           Pt  tau(   5) = (  0.0000000  0.5000000  0.2720050  )
         6           Pt  tau(   6) = (  0.0000000  0.5000000  0.4533417  )
         7           Pt  tau(   7) = (  0.5000000  0.0000000  0.0906683  )
         8           Pt  tau(   8) = (  0.5000000  0.0000000  0.2720050  )
         9           Pt  tau(   9) = (  0.5000000  0.0000000  0.4533417  )
        10           Pt  tau(  10) = (  0.5000000  0.5000000  0.0000000  )
        11           Pt  tau(  11) = (  0.5000000  0.5000000  0.1813367  )
        12           Pt  tau(  12) = (  0.5000000  0.5000000  0.3626734  )

     number of k points=     6  Gaussian smearing, width (Ry)=  0.0030
                       cart. coord. in units 2pi/alat
        k(    1) = (   0.0000000   0.0000000   0.0000000), wk =   0.1250000
        k(    2) = (   0.0000000   0.2500000   0.0000000), wk =   0.5000000
        k(    3) = (   0.0000000  -0.5000000   0.0000000), wk =   0.2500000
        k(    4) = (   0.2500000   0.2500000   0.0000000), wk =   0.5000000
        k(    5) = (   0.2500000  -0.5000000   0.0000000), wk =   0.5000000
        k(    6) = (  -0.5000000  -0.5000000   0.0000000), wk =   0.1250000

                       cryst. coord.
        k(    1) = (   0.0000000   0.0000000   0.0000000), wk =   0.1250000
        k(    2) = (   0.0000000   0.2500000   0.0000000), wk =   0.5000000
        k(    3) = (   0.0000000  -0.5000000   0.0000000), wk =   0.2500000
        k(    4) = (   0.2500000   0.2500000   0.0000000), wk =   0.5000000
        k(    5) = (   0.2500000  -0.5000000   0.0000000), wk =   0.5000000
        k(    6) = (  -0.5000000  -0.5000000   0.0000000), wk =   0.1250000

     Initial potential from superposition of free atoms

     starting charge  185.99986, renormalised to  192.00000

     negative rho (up, down):  2.275E+00 0.000E+00
     Starting wfcs are  144 randomized atomic wfcs

     Self-consistent Calculation

     iteration #  1     ecut=    30.00 Ry     beta= 0.30
     Davidson diagonalization with overlap
     ethr =  1.00E-02,  avg # of iterations =  5.8

     negative rho (up, down):  2.172E+00 0.000E+00

     total energy              =   -2518.97623652 Ry
     estimated scf accuracy    <      28.65013722 Ry

[...]

     End of self-consistent calculation

          k = 0.0000 0.0000 0.0000 (  6561 PWs)   bands (ev):

   -43.8479 -43.8441 -43.8441 -43.7645 -43.7645 -43.7580 -43.6853 -43.6853
   -43.6544 -43.6540 -43.6506 -43.6504 -43.6504 -43.6504 -43.6418 -43.6236
   -43.6236 -43.5638 -43.5638 -43.5408 -43.5017 -43.5017 -43.4850 -43.4850
   -43.1807 -43.1807 -43.1806 -43.1806 -42.9935 -42.9935 -42.9934 -42.9934
   -42.8781 -42.8778 -42.8511 -42.8509  -0.4363   0.5186   1.7564   2.4404
     2.6055   2.6057   2.9454   2.9792   3.0030   3.0030   3.0069   3.2510
     3.2511   3.3815   3.6712   3.6712   3.9632   4.1340   4.1341   4.5967
     4.6727   4.6727   5.1485   5.4101   5.6225   5.6225   5.9378   5.9378
     6.1798   6.1798   6.5799   6.5826   6.9916   6.9916   7.1530   7.3773
     7.3904   7.3904   7.5528   7.5530   7.5600   7.8704   7.9354   7.9354
     8.0222   8.2521   8.3498   8.3499   8.6389   8.8053   8.8053   8.8235
     8.8235   8.8608   8.8609   9.0032   9.0680   9.3024   9.3024   9.4314
     9.4317   9.4908   9.4909   9.9484   9.9484   9.9875  10.9465  11.7749
    11.7749  13.6414  13.6414  14.3433  15.0470  15.6469  15.6469  16.0739
    16.0740  16.7144  16.7144

     occupation numbers
     1.0000   1.0000   1.0000   1.0000   1.0000   1.0000   1.0000   1.0000
     1.0000   1.0000   1.0000   1.0000   1.0000   1.0000   1.0000   1.0000
     1.0000   1.0000   1.0000   1.0000   1.0000   1.0000   1.0000   1.0000
     1.0000   1.0000   1.0000   1.0000   1.0000   1.0000   1.0000   1.0000
     1.0000   1.0000   1.0000   1.0000   1.0000   1.0000   1.0000   1.0000
     1.0000   1.0000   1.0000   1.0000   1.0000   1.0000   1.0000   1.0000
     1.0000   1.0000   1.0000   1.0000   1.0000   1.0000   1.0000   1.0000
     1.0000   1.0000   1.0000   1.0000   1.0000   1.0000   1.0000   1.0000
     1.0000   1.0000   1.0000   1.0000   1.0000   1.0000   1.0000   1.0000
     1.0000   1.0000   1.0000   1.0000   1.0000   1.0000   1.0000   1.0000
     1.0000   1.0000   1.0000   1.0000   1.0000   1.0000   1.0000   1.0000
     1.0000   1.0000   1.0000   0.3949   0.0060   0.0000   0.0000   0.0000
     0.0000   0.0000   0.0000   0.0000   0.0000   0.0000   0.0000   0.0000
     0.0000   0.0000   0.0000   0.0000   0.0000   0.0000   0.0000   0.0000
     0.0000   0.0000   0.0000

[...]

          k =-0.5000-0.5000 0.0000 (  6460 PWs)   bands (ev):

[...]

     the Fermi energy is     8.9955 ev

!    total energy              =   -2528.00966544 Ry
     estimated scf accuracy    <       0.00000035 Ry
     smearing contrib. (-TS)   =      -0.00340494 Ry
     internal energy E=F+TS    =   -2528.00626049 Ry

     The total energy is F=E-TS. E is the sum of the following terms:
     one-electron contribution =  -12292.88108873 Ry
     hartree contribution      =    6228.05639722 Ry
     xc contribution           =    -682.13621800 Ry
     ewald contribution        =    4218.95464902 Ry

     convergence has been achieved in  19 iterations

[...]

     Forces acting on atoms (cartesian axes, Ry/au):

[...]

ATOMIC_POSITIONS (angstrom)
Pt            0.0000000000        0.0000000000        0.0100054685
Pt            0.0000000000        0.0000000000        3.9778236965
Pt            0.0000000000        0.0000000000        7.9601909612
Pt            0.0000000000        1.9883850000        1.9817577802
Pt            0.0000000000        1.9883850000        5.9640671992
Pt            0.0000000000        1.9883850000        9.9319384430
Pt            1.9883850000        0.0000000000        1.9817577802
Pt            1.9883850000        0.0000000000        5.9640671992
Pt            1.9883850000        0.0000000000        9.9319384430
Pt            1.9883850000        1.9883850000        0.0099958454
Pt            1.9883850000        1.9883850000        3.9778093313
Pt            1.9883850000        1.9883850000        7.9601978526

     Writing output data file ./surface.save/
     NEW-OLD atomic charge density approx. for the potential

[...]

     Total force =     0.034413     Total SCF correction =     0.006002
     SCF correction compared to forces is large: reduce conv_thr to get better values

[...]

     Energy error            =      1.8E-03
     Gradient error          =      1.5E-02

[...]

     energy   old            =   -2528.0096654350 Ry
     energy   new            =   -2528.0114743514 Ry

     CASE: energy  _new < energy  _old

[...]

     Total force =     0.009591     Total SCF correction =     0.000778

[...]

     number of scf cycles    =  11
     number of bfgs steps    =  10

     energy   old            =   -2528.0162275823 Ry
     energy   new            =   -2528.0163512003 Ry

     CASE: energy  _new < energy  _old

     new trust radius        =       0.0031286595 bohr
     new conv_thr            =       0.0000000100 Ry

ATOMIC_POSITIONS (angstrom)
Pt            0.0000000000        0.0000000000        0.1127428314
Pt            0.0000000000        0.0000000000        3.9913667172
Pt            0.0000000000        0.0000000000        7.9178373112
Pt            0.0000000000        1.9883850000        2.0240856040
Pt            0.0000000000        1.9883850000        5.9505187951
Pt            0.0000000000        1.9883850000        9.8292184963
Pt            1.9883850000        0.0000000000        2.0240856040
Pt            1.9883850000        0.0000000000        5.9505187951
Pt            1.9883850000        0.0000000000        9.8292184963
Pt            1.9883850000        1.9883850000        0.1127185343
Pt            1.9883850000        1.9883850000        3.9913801657
Pt            1.9883850000        1.9883850000        7.9178586496

     Writing output data file ./surface.save/
     NEW-OLD atomic charge density approx. for the potential

[...]

     Self-consistent Calculation

[...]

     total energy              =   -2528.01635968 Ry
     estimated scf accuracy    <       0.00000017 Ry

     iteration # 12     ecut=    30.00 Ry     beta= 0.30
     Davidson diagonalization with overlap
     ethr =  8.68E-11,  avg # of iterations =  1.0

[...]

     End of self-consistent calculation

[...]

          k = 0.2500-0.5000 0.0000 (  6468 PWs)   bands (ev):

[...]

          k =-0.5000-0.5000 0.0000 (  6460 PWs)   bands (ev):

   -43.9088 -43.9088 -43.9088 -43.9088 -43.8397 -43.8397 -43.8396 -43.8396
   -43.7174 -43.7174 -43.7174 -43.7174 -43.6052 -43.6052 -43.6052 -43.6052
   -43.5784 -43.5784 -43.5784 -43.5784 -43.5726 -43.5726 -43.5725 -43.5725
   -43.2690 -43.2690 -43.2690 -43.2690 -43.0622 -43.0622 -43.0622 -43.0621
   -42.9426 -42.9426 -42.9426 -42.9425   2.1657   2.1657   2.1657   2.1657
     2.7413   2.7413   2.7413   2.7413   3.6580   3.6580   3.6580   3.6580
     5.0704   5.0704   5.0704   5.0704   5.1414   5.1414   5.1414   5.1414
     5.4076   5.4076   5.4076   5.4077   5.4279   5.4279   5.4279   5.4279
     5.8577   5.8577   5.8577   5.8578   5.8956   5.8957   5.8957   5.8957
     6.6337   6.6338   6.6338   6.6338   6.8023   6.8023   6.8023   6.8024
     7.8597   7.8597   7.8597   7.8597   8.3779   8.3779   8.3779   8.3779
     8.6339   8.6339   8.6339   8.6339   9.0341   9.0341   9.0341   9.0341
     9.7247   9.7247   9.7247   9.7248  10.5818  10.5818  10.5818  10.5818
    10.7506  10.7506  10.7507  10.7507  13.1350  13.1350  13.1350  13.1351
    15.5910  15.5910  15.5910

     occupation numbers
     1.0000   1.0000   1.0000   1.0000   1.0000   1.0000   1.0000   1.0000
     1.0000   1.0000   1.0000   1.0000   1.0000   1.0000   1.0000   1.0000
     1.0000   1.0000   1.0000   1.0000   1.0000   1.0000   1.0000   1.0000
     1.0000   1.0000   1.0000   1.0000   1.0000   1.0000   1.0000   1.0000
     1.0000   1.0000   1.0000   1.0000   1.0000   1.0000   1.0000   1.0000
     1.0000   1.0000   1.0000   1.0000   1.0000   1.0000   1.0000   1.0000
     1.0000   1.0000   1.0000   1.0000   1.0000   1.0000   1.0000   1.0000
     1.0000   1.0000   1.0000   1.0000   1.0000   1.0000   1.0000   1.0000
     1.0000   1.0000   1.0000   1.0000   1.0000   1.0000   1.0000   1.0000
     1.0000   1.0000   1.0000   1.0000   1.0000   1.0000   1.0000   1.0000
     1.0000   1.0000   1.0000   1.0000   1.0000   1.0000   1.0000   1.0000
     1.0000   1.0000   1.0000   1.0000   0.3275   0.3274   0.3274   0.3274
     0.0000   0.0000   0.0000   0.0000   0.0000   0.0000   0.0000   0.0000
     0.0000   0.0000   0.0000   0.0000   0.0000   0.0000   0.0000   0.0000
     0.0000   0.0000   0.0000

     the Fermi energy is     9.0212 ev

!    total energy              =   -2528.01635968 Ry
     estimated scf accuracy    <          1.0E-09 Ry
     smearing contrib. (-TS)   =      -0.00287459 Ry
     internal energy E=F+TS    =   -2528.01348509 Ry

     The total energy is F=E-TS. E is the sum of the following terms:
     one-electron contribution =  -12828.55672554 Ry
     hartree contribution      =    6495.49973630 Ry
     xc contribution           =    -682.36324182 Ry
     ewald contribution        =    4487.40674597 Ry

     convergence has been achieved in  12 iterations

     negative rho (up, down):  2.117E+00 0.000E+00

     Forces acting on atoms (cartesian axes, Ry/au):

     atom    1 type  1   force =     0.00000000    0.00000000    0.00012219
     atom    2 type  1   force =     0.00000000    0.00000000    0.00015104
     atom    3 type  1   force =     0.00000000    0.00000000    0.00026824
     atom    4 type  1   force =     0.00000000    0.00000000   -0.00026962
     atom    5 type  1   force =     0.00000000    0.00000000   -0.00013593
     atom    6 type  1   force =     0.00000000    0.00000000   -0.00013184
     atom    7 type  1   force =     0.00000000    0.00000000   -0.00026962
     atom    8 type  1   force =     0.00000000    0.00000000   -0.00013593
     atom    9 type  1   force =     0.00000000    0.00000000   -0.00013184
     atom   10 type  1   force =     0.00000000    0.00000000    0.00012685
     atom   11 type  1   force =     0.00000000    0.00000000    0.00014386
     atom   12 type  1   force =     0.00000000    0.00000000    0.00026259
     The non-local contrib.  to forces
     atom    1 type  1   force =     0.00000000    0.00000000   -0.08190589
     atom    2 type  1   force =     0.00000000    0.00000000    0.00158894
     atom    3 type  1   force =     0.00000000    0.00000000    0.00114629
     atom    4 type  1   force =     0.00000000    0.00000000   -0.00114454
     atom    5 type  1   force =     0.00000000    0.00000000   -0.00158201
     atom    6 type  1   force =     0.00000000    0.00000000    0.08190403
     atom    7 type  1   force =     0.00000000    0.00000000   -0.00114454
     atom    8 type  1   force =     0.00000000    0.00000000   -0.00158201
     atom    9 type  1   force =     0.00000000    0.00000000    0.08190403
     atom   10 type  1   force =     0.00000000    0.00000000   -0.08191023
     atom   11 type  1   force =     0.00000000    0.00000000    0.00158432
     atom   12 type  1   force =     0.00000000    0.00000000    0.00113646
     The ionic contribution  to forces
     atom    1 type  1   force =     0.00000000    0.00000000 -261.59674746
     atom    2 type  1   force =    -0.00000000   -0.00000000  -52.77139542
     atom    3 type  1   force =    -0.00000000   -0.00000000  158.71067540
     atom    4 type  1   force =     0.00000000   -0.00000000 -158.71135028
     atom    5 type  1   force =    -0.00000000   -0.00000000   52.77284619
     atom    6 type  1   force =    -0.00000000    0.00000000  261.59567174
     atom    7 type  1   force =     0.00000000   -0.00000000 -158.71135028
     atom    8 type  1   force =    -0.00000000   -0.00000000   52.77284619
     atom    9 type  1   force =     0.00000000   -0.00000000  261.59567174
     atom   10 type  1   force =     0.00000000    0.00000000 -261.59729716
     atom   11 type  1   force =    -0.00000000   -0.00000000  -52.77097230
     atom   12 type  1   force =     0.00000000    0.00000000  158.71140167
     The local contribution  to forces
     atom    1 type  1   force =     0.00000000    0.00000000  261.65498431
     atom    2 type  1   force =     0.00000000    0.00000000   52.77082802
     atom    3 type  1   force =     0.00000000    0.00000000 -158.71613252
     atom    4 type  1   force =     0.00000000    0.00000000  158.71682906
     atom    5 type  1   force =     0.00000000    0.00000000  -52.77223121
     atom    6 type  1   force =     0.00000000   -0.00000000 -261.65393921
     atom    7 type  1   force =     0.00000000    0.00000000  158.71682906
     atom    8 type  1   force =     0.00000000    0.00000000  -52.77223121
     atom    9 type  1   force =    -0.00000000    0.00000000 -261.65393921
     atom   10 type  1   force =     0.00000000    0.00000000  261.65554409
     atom   11 type  1   force =     0.00000000    0.00000000   52.77040018
     atom   12 type  1   force =     0.00000000    0.00000000 -158.71685222
     The core correction contribution to forces
     atom    1 type  1   force =    -0.00000000   -0.00000000    0.02372352
     atom    2 type  1   force =     0.00000000   -0.00000000   -0.00086764
     atom    3 type  1   force =     0.00000000    0.00000000    0.00466223
     atom    4 type  1   force =    -0.00000000   -0.00000000   -0.00466172
     atom    5 type  1   force =    -0.00000000    0.00000000    0.00086720
     atom    6 type  1   force =     0.00000000   -0.00000000   -0.02372413
     atom    7 type  1   force =     0.00000000    0.00000000   -0.00466172
     atom    8 type  1   force =     0.00000000    0.00000000    0.00086720
     atom    9 type  1   force =    -0.00000000    0.00000000   -0.02372413
     atom   10 type  1   force =    -0.00000000   -0.00000000    0.02372281
     atom   11 type  1   force =     0.00000000    0.00000000   -0.00086719
     atom   12 type  1   force =    -0.00000000   -0.00000000    0.00466284
     The Hubbard contrib.    to forces
     atom    1 type  1   force =     0.00000000    0.00000000    0.00000000
     atom    2 type  1   force =     0.00000000    0.00000000    0.00000000
     atom    3 type  1   force =     0.00000000    0.00000000    0.00000000
     atom    4 type  1   force =     0.00000000    0.00000000    0.00000000
     atom    5 type  1   force =     0.00000000    0.00000000    0.00000000
     atom    6 type  1   force =     0.00000000    0.00000000    0.00000000
     atom    7 type  1   force =     0.00000000    0.00000000    0.00000000
     atom    8 type  1   force =     0.00000000    0.00000000    0.00000000
     atom    9 type  1   force =     0.00000000    0.00000000    0.00000000
     atom   10 type  1   force =     0.00000000    0.00000000    0.00000000
     atom   11 type  1   force =     0.00000000    0.00000000    0.00000000
     atom   12 type  1   force =     0.00000000    0.00000000    0.00000000
     The SCF correction term to forces
     atom    1 type  1   force =     0.00000000    0.00000000    0.00006691
     atom    2 type  1   force =     0.00000000   -0.00000000   -0.00000364
     atom    3 type  1   force =    -0.00000000   -0.00000000   -0.00008396
     atom    4 type  1   force =    -0.00000000    0.00000000    0.00005707
     atom    5 type  1   force =    -0.00000000    0.00000000   -0.00003690
     atom    6 type  1   force =    -0.00000000   -0.00000000   -0.00004505
     atom    7 type  1   force =    -0.00000000    0.00000000    0.00005707
     atom    8 type  1   force =     0.00000000   -0.00000000   -0.00003690
     atom    9 type  1   force =    -0.00000000   -0.00000000   -0.00004505
     atom   10 type  1   force =     0.00000000   -0.00000000    0.00006654
     atom   11 type  1   force =     0.00000000    0.00000000   -0.00000194
     atom   12 type  1   force =    -0.00000000   -0.00000000   -0.00008696

     Total force =     0.000658     Total SCF correction =     0.000192
     SCF correction compared to forces is large: reduce conv_thr to get better values

     Computing stress (Cartesian axis) and pressure

     negative rho (up, down):  2.117E+00 0.000E+00
          total   stress  (Ry/bohr**3)                   (kbar)     P=      -38.34
  -0.00031060   0.00000000   0.00000000          -45.69        0.00        0.00
   0.00000000  -0.00031060   0.00000000            0.00      -45.69        0.00
   0.00000000   0.00000000  -0.00016062            0.00        0.00      -23.63

     kinetic stress (kbar)  28646.19      0.00      0.00
                                0.00  28646.19      0.00
                                0.00      0.00  28794.02

     local   stress (kbar)-775341.61      0.00      0.00
                                0.00-775341.61     -0.00
                                0.00     -0.00 798628.58

     nonloc. stress (kbar)   -166.06      0.00      0.00
                                0.00   -166.06      0.00
                                0.00      0.00   -146.34

     hartree stress (kbar) 394979.89      0.00     -0.00
                                0.00 394979.89     -0.00
                               -0.00     -0.00-381698.76

     exc-cor stress (kbar)  21072.60      0.00     -0.00
                                0.00  21072.60      0.00
                               -0.00      0.00  21067.43

     corecor stress (kbar) -29061.11      0.00      0.00
                                0.00 -29061.11      0.00
                                0.00      0.00 -29066.29

     ewald   stress (kbar) 359824.41      0.00      0.00
                                0.00 359824.41      0.00
                                0.00      0.00-437602.28

     hubbard stress (kbar)      0.00      0.00      0.00
                                0.00      0.00      0.00
                                0.00      0.00      0.00

     DFT-D   stress (kbar)      0.00      0.00      0.00
                                0.00      0.00      0.00
                                0.00      0.00      0.00

     XDM     stress (kbar)      0.00      0.00      0.00
                                0.00      0.00      0.00
                                0.00      0.00      0.00

     dft-nl  stress (kbar)      0.00      0.00      0.00
                                0.00      0.00      0.00
                                0.00      0.00      0.00

     TS-vdW  stress (kbar)      0.00      0.00      0.00
                                0.00      0.00      0.00
                                0.00      0.00      0.00

     Energy error            =      8.5E-06
     Gradient error          =      2.7E-04

     bfgs converged in  12 scf cycles and  11 bfgs steps
     (criteria: energy <  1.0E-04 Ry, force <  1.0E-03 Ry/Bohr)

     End of BFGS Geometry Optimization

     Final energy   =   -2528.0163596787 Ry

     File ./surface.bfgs deleted, as requested
Begin final coordinates

ATOMIC_POSITIONS (angstrom)
Pt            0.0000000000        0.0000000000        0.1127428314
Pt            0.0000000000        0.0000000000        3.9913667172
Pt            0.0000000000        0.0000000000        7.9178373112
Pt            0.0000000000        1.9883850000        2.0240856040
Pt            0.0000000000        1.9883850000        5.9505187951
Pt            0.0000000000        1.9883850000        9.8292184963
Pt            1.9883850000        0.0000000000        2.0240856040
Pt            1.9883850000        0.0000000000        5.9505187951
Pt            1.9883850000        0.0000000000        9.8292184963
Pt            1.9883850000        1.9883850000        0.1127185343
Pt            1.9883850000        1.9883850000        3.9913801657
Pt            1.9883850000        1.9883850000        7.9178586496
End final coordinates

     Writing output data file ./surface.save/

     General routines

     Parallel routines

   This run was terminated on:   3:59: 9  10Dec2021

   JOB DONE.