     Program PWSCF v.6.7MaX starts on  6Dec2021 at 19:20:51

     R & G space division:  proc/nbgrp/npool/nimage =      32
     Reading input from pt_surface.111.qe.in

     Current dimensions of program PWSCF are:
     Max number of different atomic species (ntypx) = 10
     Max number of k-points (npk) =  40000
     Max angular momentum in pseudopotentials (lmaxx) =  3

     Found symmetry operation: I + ( -0.0000  0.3333  0.0000)
     This is a supercell, fractional translations are disabled

     bravais-lattice index     =           14
     lattice parameter (alat)  =      15.9417  a.u.
     unit-cell volume          =    7023.8920 (a.u.)^3
     number of atoms/cell      =           27
     number of atomic types    =            1
     number of electrons       =       432.00
     number of Kohn-Sham states=          259
     kinetic-energy cutoff     =      30.0000  Ry
     charge density cutoff     =     300.0000  Ry
     scf convergence threshold =      1.0E-06
     mixing beta               =       0.3000
     number of iterations used =            8  plain     mixing
     energy convergence thresh.=      1.0E-04
     force convergence thresh. =      1.0E-03
     Exchange-correlation=  SLA  PW   PBX  PBC
                           (   1   4   3   4   0   0   0)
     nstep                     =           50

     celldm(1)=  15.941730  celldm(2)=   1.000000  celldm(3)=   2.001893
     celldm(4)=   0.000000  celldm(5)=   0.000000  celldm(6)=  -0.500000

     crystal axes: (cart. coord. in units of alat)
               a(1) = (   1.000000   0.000000   0.000000 )
               a(2) = (  -0.500000   0.866025   0.000000 )
               a(3) = (   0.000000   0.000000   2.001893 )

     reciprocal axes: (cart. coord. in units 2 pi/alat)
               b(1) = (  1.000000  0.577350 -0.000000 )
               b(2) = (  0.000000  1.154701  0.000000 )
               b(3) = (  0.000000 -0.000000  0.499527 )

     PseudoPot. # 1 for Pt read from file:
     /expanse/lustre/projects/csd622/tpascal/nano110/qe/pseudo/pt_pbe_v1.4.uspp.F.UPF
     MD5 check sum: f09d6de1a584b5a045c4fc126da2d0c4
     Pseudo is Ultrasoft + core correction, Zval = 16.0
     Generated by new atomic code, or converted to UPF format
     Using radial grid of  985 points,  6 beta functions with:
                l(1) =   0
                l(2) =   0
                l(3) =   1
                l(4) =   1
                l(5) =   2
                l(6) =   2
     Q(r) pseudized with  8 coefficients,  rinner =    1.300   1.300   1.300
                                                       1.300   1.300

     atomic species   valence    mass     pseudopotential
        Pt            16.00   195.08400     Pt( 1.00)

      6 Sym. Ops. (no inversion) found

                                    s                        frac. trans.

      isym =  1     identity

 cryst.   s( 1) = (     1          0          0      )
                  (     0          1          0      )
                  (     0          0          1      )

 cart.    s( 1) = (  1.0000000  0.0000000  0.0000000 )
                  (  0.0000000  1.0000000  0.0000000 )
                  (  0.0000000  0.0000000  1.0000000 )

      isym =  2     120 deg rotation - cryst. axis [0,0,1]

[...]

      isym =  3     120 deg rotation - cryst. axis [0,0,-1]

[...]

      isym =  4     inv. 180 deg rotation - cart. axis [1,0,0]

[...]

      isym =  5     inv. 180 deg rotation - cryst. axis [0,1,0]

[...]

      isym =  6     inv. 180 deg rotation - cryst. axis [1,1,0]

 cryst.   s( 6) = (     0         -1          0      )
                  (    -1          0          0      )
                  (     0          0          1      )

 cart.    s( 6) = (  0.5000000 -0.8660254  0.0000000 )
                  ( -0.8660254 -0.5000000  0.0000000 )
                  (  0.0000000  0.0000000  1.0000000 )

     point group C_3v (3m)
     there are  3 classes
     the character table:

       E     2C3   3s_v
A_1    1.00  1.00  1.00
A_2    1.00  1.00 -1.00
E      2.00 -1.00  0.00

     the symmetry operations in each class and the name of the first element:

     E        1
          identity
     2C3      2    3
          120 deg rotation - cryst. axis [0,0,1]
     3s_v     4    5    6
          inv. 180 deg rotation - cart. axis [1,0,0]

   Cartesian axes

     site n.     atom                  positions (alat units)
         1           Pt  tau(   1) = (  -0.0000002   0.1924503   0.5443316  )
         2           Pt  tau(   2) = (   0.0000000   0.0000000   0.0000000  )
         3           Pt  tau(   3) = (   0.1666669   0.0962250   0.2721654  )
         4           Pt  tau(   4) = (  -0.1666669   0.4811255   0.5443316  )
         5           Pt  tau(   5) = (  -0.1666667   0.2886752   0.0000000  )
         6           Pt  tau(   6) = (   0.0000002   0.3849002   0.2721654  )
         7           Pt  tau(   7) = (  -0.3333336   0.7698007   0.5443316  )
         8           Pt  tau(   8) = (  -0.3333335   0.5773505   0.0000000  )
         9           Pt  tau(   9) = (  -0.1666666   0.6735755   0.2721654  )
        10           Pt  tau(  10) = (   0.3333333   0.1924503   0.5443316  )
        11           Pt  tau(  11) = (   0.3333335   0.0000000   0.0000000  )
        12           Pt  tau(  12) = (   0.5000003   0.0962250   0.2721654  )
        13           Pt  tau(  13) = (   0.1666666   0.4811255   0.5443316  )
        14           Pt  tau(  14) = (   0.1666667   0.2886752   0.0000000  )
        15           Pt  tau(  15) = (   0.3333336   0.3849002   0.2721654  )
        16           Pt  tau(  16) = (  -0.0000002   0.7698007   0.5443316  )
        17           Pt  tau(  17) = (   0.0000000   0.5773505   0.0000000  )
        18           Pt  tau(  18) = (   0.1666669   0.6735755   0.2721654  )
        19           Pt  tau(  19) = (   0.6666667   0.1924503   0.5443316  )
        20           Pt  tau(  20) = (   0.6666669   0.0000000   0.0000000  )
        21           Pt  tau(  21) = (   0.8333338   0.0962250   0.2721654  )
        22           Pt  tau(  22) = (   0.5000000   0.4811255   0.5443316  )
        23           Pt  tau(  23) = (   0.5000002   0.2886752   0.0000000  )
        24           Pt  tau(  24) = (   0.6666671   0.3849002   0.2721654  )
        25           Pt  tau(  25) = (   0.3333333   0.7698007   0.5443316  )
        26           Pt  tau(  26) = (   0.3333335   0.5773505   0.0000000  )
        27           Pt  tau(  27) = (   0.5000003   0.6735755   0.2721654  )

   Crystallographic axes

     site n.     atom                  positions (cryst. coord.)
         1           Pt  tau(   1) = (  0.1111110  0.2222224  0.2719084  )
         2           Pt  tau(   2) = (  0.0000000  0.0000000  0.0000000  )
         3           Pt  tau(   3) = (  0.2222224  0.1111110  0.1359540  )
         4           Pt  tau(   4) = (  0.1111110  0.5555559  0.2719084  )
         5           Pt  tau(   5) = (  0.0000000  0.3333335  0.0000000  )
         6           Pt  tau(   6) = (  0.2222224  0.4444445  0.1359540  )
         7           Pt  tau(   7) = (  0.1111110  0.8888893  0.2719084  )
         8           Pt  tau(   8) = ( -0.0000000  0.6666669  0.0000000  )
         9           Pt  tau(   9) = (  0.2222224  0.7777779  0.1359540  )
        10           Pt  tau(  10) = (  0.4444445  0.2222224  0.2719084  )
        11           Pt  tau(  11) = (  0.3333335  0.0000000  0.0000000  )
        12           Pt  tau(  12) = (  0.5555559  0.1111110  0.1359540  )
        13           Pt  tau(  13) = (  0.4444445  0.5555559  0.2719084  )
        14           Pt  tau(  14) = (  0.3333335  0.3333335  0.0000000  )
        15           Pt  tau(  15) = (  0.5555559  0.4444445  0.1359540  )
        16           Pt  tau(  16) = (  0.4444445  0.8888893  0.2719084  )
        17           Pt  tau(  17) = (  0.3333335  0.6666669  0.0000000  )
        18           Pt  tau(  18) = (  0.5555559  0.7777779  0.1359540  )
        19           Pt  tau(  19) = (  0.7777779  0.2222224  0.2719084  )
        20           Pt  tau(  20) = (  0.6666669  0.0000000  0.0000000  )
        21           Pt  tau(  21) = (  0.8888893  0.1111110  0.1359540  )
        22           Pt  tau(  22) = (  0.7777779  0.5555559  0.2719084  )
        23           Pt  tau(  23) = (  0.6666669  0.3333335  0.0000000  )
        24           Pt  tau(  24) = (  0.8888893  0.4444445  0.1359540  )
        25           Pt  tau(  25) = (  0.7777779  0.8888893  0.2719084  )
        26           Pt  tau(  26) = (  0.6666669  0.6666669  0.0000000  )
        27           Pt  tau(  27) = (  0.8888893  0.7777779  0.1359540  )

     number of k points=     4  Gaussian smearing, width (Ry)=  0.0030
                       cart. coord. in units 2pi/alat
        k(    1) = (   0.0000000   0.0000000   0.0000000), wk =   0.1250000
        k(    2) = (   0.0000000   0.2886751   0.0000000), wk =   0.7500000
        k(    3) = (   0.0000000  -0.5773503   0.0000000), wk =   0.3750000
        k(    4) = (   0.2500000   0.4330127   0.0000000), wk =   0.7500000

                       cryst. coord.
        k(    1) = (   0.0000000   0.0000000   0.0000000), wk =   0.1250000
        k(    2) = (   0.0000000   0.2500000   0.0000000), wk =   0.7500000
        k(    3) = (   0.0000000  -0.5000000   0.0000000), wk =   0.3750000
        k(    4) = (   0.2500000   0.2500000   0.0000000), wk =   0.7500000

     Initial potential from superposition of free atoms

     starting charge  418.49969, renormalised to  432.00000

     negative rho (up, down):  5.245E+00 0.000E+00
     Starting wfcs are  324 randomized atomic wfcs

     Self-consistent Calculation

     iteration #  1     ecut=    30.00 Ry     beta= 0.30
     Davidson diagonalization with overlap
     ethr =  1.00E-02,  avg # of iterations =  8.2

     negative rho (up, down):  4.997E+00 0.000E+00

     total energy              =   -5675.78957835 Ry
     estimated scf accuracy    <      49.79143132 Ry

[...]

     total energy              =   -5687.79112946 Ry
     estimated scf accuracy    <       0.00000265 Ry

     iteration # 24     ecut=    30.00 Ry     beta= 0.30
     Davidson diagonalization with overlap
     ethr =  3.92E-10,  avg # of iterations =  1.0

[...]

     End of self-consistent calculation

          k = 0.0000 0.0000 0.0000 ( 19387 PWs)   bands (ev):

   -47.5266 -47.5266 -47.5265 -47.5265 -47.5265 -47.5264 -47.5115 -47.5115
   -47.5115 -47.5115 -47.4870 -47.4533 -47.4533 -47.4533 -47.4532 -47.4532
   -47.4532 -47.4360 -47.4360 -47.3499 -47.3499 -47.3498 -47.3498 -47.3498
   -47.3498 -47.2913 -47.2913 -47.1244 -47.1242 -47.1242 -47.1242 -47.1241
   -47.1241 -47.1103 -47.1103 -47.1102 -47.1101 -47.1100 -47.1100 -47.1100
   -47.1099 -47.1073 -47.1073 -47.1072 -47.1072 -47.0901 -47.0901 -46.9523
   -46.9522 -46.9521 -46.9521 -46.9521 -46.9521 -46.9499 -46.9498 -46.9497
   -46.9497 -46.9497 -46.9496 -46.8949 -46.8949 -46.8937 -46.8937 -46.7512
   -46.7221 -46.7187 -46.7187 -46.7185 -46.7185 -46.7185 -46.7181 -46.7104
   -46.7104 -46.7102 -46.7102 -46.7102 -46.7098 -46.7036 -46.7034 -46.7034
   -46.7032  -3.6290  -1.8652  -1.3967  -1.2097  -1.2097  -1.2097  -1.2096
[...]
     atom   11 type  1   force =     0.00002934   -0.00001380   -0.05063512
     atom   12 type  1   force =     0.00000000    0.00000359    0.00000935
     atom   13 type  1   force =     0.00001932   -0.00001116    0.05063204
     atom   14 type  1   force =     0.00000272    0.00003231   -0.05063512
     atom   15 type  1   force =     0.00000311   -0.00000180    0.00000935
     atom   16 type  1   force =     0.00000000    0.00002231    0.05063204
     atom   17 type  1   force =     0.00000000   -0.00000000   -0.05066533
     atom   18 type  1   force =    -0.00001534   -0.00000886   -0.00000953
     atom   19 type  1   force =    -0.00000758    0.00000438    0.05065937
     atom   20 type  1   force =    -0.00002934   -0.00001380   -0.05063512
     atom   21 type  1   force =    -0.00000594    0.00000343    0.00002904
     atom   22 type  1   force =     0.00000000   -0.00000876    0.05065937
     atom   23 type  1   force =     0.00000000   -0.00000000   -0.05065960
     atom   24 type  1   force =    -0.00000311   -0.00000180    0.00000935
     atom   25 type  1   force =     0.00002178    0.00001257    0.05065648
     atom   26 type  1   force =    -0.00002662   -0.00001851   -0.05063512
     atom   27 type  1   force =     0.00000000   -0.00000686    0.00002904
     The ionic contribution  to forces
     atom    1 type  1   force =     0.00006289    0.00010456  154.75752754
     atom    2 type  1   force =     0.00004789    0.00008703 -154.75764690
     atom    3 type  1   force =     0.00006243    0.00012201    0.00005989
     atom    4 type  1   force =     0.00006624    0.00002235  154.75752307
     atom    5 type  1   force =     0.00004993    0.00002819 -154.75761493
     atom    6 type  1   force =     0.00006438    0.00003966    0.00008362
     atom    7 type  1   force =     0.00006828   -0.00003649  154.75755504
     atom    8 type  1   force =     0.00005329   -0.00005403 -154.75761940
     atom    9 type  1   force =     0.00006633   -0.00004268    0.00010736
     atom   10 type  1   force =     0.00000541    0.00007371  154.75749693
     atom   11 type  1   force =     0.00001251    0.00007452 -154.75761940
     atom   12 type  1   force =    -0.00002526    0.00007518    0.00007123
     atom   13 type  1   force =     0.00000876   -0.00000850  154.75749247
     atom   14 type  1   force =     0.00001455    0.00001567 -154.75758743
     atom   15 type  1   force =    -0.00002331   -0.00000717    0.00009497
     atom   16 type  1   force =     0.00001080   -0.00006735  154.75752443
     atom   17 type  1   force =     0.00001790   -0.00006654 -154.75759190
     atom   18 type  1   force =    -0.00002136   -0.00008952    0.00011870
     atom   19 type  1   force =    -0.00006404    0.00003748  154.75750637
     atom   20 type  1   force =    -0.00006037    0.00003632 -154.75761493
     atom   21 type  1   force =    -0.00006349    0.00005941    0.00006556
     atom   22 type  1   force =    -0.00006068   -0.00004473  154.75750190
     atom   23 type  1   force =    -0.00005833   -0.00002253 -154.75758296
     atom   24 type  1   force =    -0.00006154   -0.00002294    0.00008929
     atom   25 type  1   force =    -0.00005864   -0.00010358  154.75753387
     atom   26 type  1   force =    -0.00005498   -0.00010474 -154.75758743
     atom   27 type  1   force =    -0.00005959   -0.00010529    0.00011303
     The local contribution  to forces
     atom    1 type  1   force =     0.00026426   -0.00004939 -154.79130687
     atom    2 type  1   force =    -0.00000000   -0.00000000  154.79117686
     atom    3 type  1   force =    -0.00083926   -0.00018233   -0.00082533
     atom    4 type  1   force =     0.00083666   -0.00014764 -154.79093049
     atom    5 type  1   force =     0.00032600   -0.00108258  154.79106041
     atom    6 type  1   force =    -0.00026172   -0.00064369    0.00020114
     atom    7 type  1   force =     0.00063554   -0.00069247 -154.79130688
     atom    8 type  1   force =    -0.00049260    0.00033530  154.79106041
     atom    9 type  1   force =    -0.00067081    0.00006488    0.00020114
     atom   10 type  1   force =    -0.00029883   -0.00047767 -154.79128689
     atom   11 type  1   force =    -0.00110053    0.00025896  154.79106041
     atom   12 type  1   force =    -0.00054095   -0.00031844   -0.00030140
     atom   13 type  1   force =    -0.00030813   -0.00014764 -154.79093049
     atom   14 type  1   force =    -0.00032600   -0.00108258  154.79106041
     atom   15 type  1   force =    -0.00080798    0.00014406   -0.00030140
     atom   16 type  1   force =     0.00026426   -0.00113907 -154.79093049
     atom   17 type  1   force =     0.00000000   -0.00032552  154.79120571
     atom   18 type  1   force =     0.00014736    0.00006488    0.00020113
     atom   19 type  1   force =     0.00026350   -0.00047767 -154.79128689
     atom   20 type  1   force =     0.00053667    0.00025896  154.79106041
     atom   21 type  1   force =    -0.00024264   -0.00018233   -0.00082533
     atom   22 type  1   force =    -0.00001767    0.00000933 -154.79128689
     atom   23 type  1   force =    -0.00028192   -0.00016277  154.79123546
     atom   24 type  1   force =    -0.00027392    0.00014406   -0.00030140
     atom   25 type  1   force =    -0.00010703   -0.00069247 -154.79130687
     atom   26 type  1   force =     0.00049260    0.00033530  154.79106041
     atom   27 type  1   force =    -0.00054095    0.00033436   -0.00082533
     The core correction contribution to forces
     atom    1 type  1   force =    -0.00000959    0.00001559   -0.01626347
     atom    2 type  1   force =    -0.00000000    0.00000000    0.01626505
     atom    3 type  1   force =     0.00001941   -0.00000006    0.00000102
     atom    4 type  1   force =    -0.00000972    0.00001728   -0.01626728
     atom    5 type  1   force =    -0.00000453    0.00000881    0.01626681
     atom    6 type  1   force =     0.00000976    0.00000707   -0.00000150
     atom    7 type  1   force =    -0.00001112    0.00001824   -0.01626347
     atom    8 type  1   force =    -0.00000487    0.00000940    0.01626681
     atom    9 type  1   force =     0.00001035    0.00000604   -0.00000150
     atom   10 type  1   force =    -0.00000013    0.00001100   -0.01626224
     atom   11 type  1   force =     0.00000989   -0.00000048    0.01626681
     atom   12 type  1   force =     0.00002017    0.00000109   -0.00000003
     atom   13 type  1   force =    -0.00000946    0.00001728   -0.01626728
     atom   14 type  1   force =     0.00000453    0.00000881    0.01626681
     atom   15 type  1   force =     0.00002078    0.00000002   -0.00000003
     atom   16 type  1   force =    -0.00000959    0.00001750   -0.01626728
     atom   17 type  1   force =    -0.00000000    0.00001182    0.01625611
     atom   18 type  1   force =     0.00000916    0.00000604   -0.00000150
     atom   19 type  1   force =     0.00000142    0.00001100   -0.01626224
     atom   20 type  1   force =     0.00001058   -0.00000048    0.01626681
     atom   21 type  1   force =     0.00002093   -0.00000006    0.00000102
     atom   22 type  1   force =     0.00000064    0.00001234   -0.01626224
     atom   23 type  1   force =     0.00001023    0.00000591    0.01626042
     atom   24 type  1   force =     0.00001955    0.00000002   -0.00000003
     atom   25 type  1   force =    -0.00000806    0.00001824   -0.01626347
     atom   26 type  1   force =     0.00000487    0.00000940    0.01626681
     atom   27 type  1   force =     0.00002017    0.00000125    0.00000102
     The Hubbard contrib.    to forces
     atom    1 type  1   force =     0.00000000    0.00000000    0.00000000
     atom    2 type  1   force =     0.00000000    0.00000000    0.00000000
     atom    3 type  1   force =     0.00000000    0.00000000    0.00000000
     atom    4 type  1   force =     0.00000000    0.00000000    0.00000000
     atom    5 type  1   force =     0.00000000    0.00000000    0.00000000
     atom    6 type  1   force =     0.00000000    0.00000000    0.00000000
     atom    7 type  1   force =     0.00000000    0.00000000    0.00000000
     atom    8 type  1   force =     0.00000000    0.00000000    0.00000000
     atom    9 type  1   force =     0.00000000    0.00000000    0.00000000
     atom   10 type  1   force =     0.00000000    0.00000000    0.00000000
     atom   11 type  1   force =     0.00000000    0.00000000    0.00000000
     atom   12 type  1   force =     0.00000000    0.00000000    0.00000000
     atom   13 type  1   force =     0.00000000    0.00000000    0.00000000
     atom   14 type  1   force =     0.00000000    0.00000000    0.00000000
     atom   15 type  1   force =     0.00000000    0.00000000    0.00000000
     atom   16 type  1   force =     0.00000000    0.00000000    0.00000000
     atom   17 type  1   force =     0.00000000    0.00000000    0.00000000
     atom   18 type  1   force =     0.00000000    0.00000000    0.00000000
     atom   19 type  1   force =     0.00000000    0.00000000    0.00000000
     atom   20 type  1   force =     0.00000000    0.00000000    0.00000000
     atom   21 type  1   force =     0.00000000    0.00000000    0.00000000
     atom   22 type  1   force =     0.00000000    0.00000000    0.00000000
     atom   23 type  1   force =     0.00000000    0.00000000    0.00000000
     atom   24 type  1   force =     0.00000000    0.00000000    0.00000000
     atom   25 type  1   force =     0.00000000    0.00000000    0.00000000
     atom   26 type  1   force =     0.00000000    0.00000000    0.00000000
     atom   27 type  1   force =     0.00000000    0.00000000    0.00000000
     The SCF correction term to forces
     atom    1 type  1   force =     0.00000003   -0.00051962    0.00030206
     atom    2 type  1   force =     0.00000001    0.00000001   -0.00008288
     atom    3 type  1   force =     0.00020639    0.00011919    0.00074902
     atom    4 type  1   force =    -0.00061220   -0.00035350   -0.00001894
     atom    5 type  1   force =    -0.00015536    0.00080265   -0.00001934
     atom    6 type  1   force =    -0.00000001    0.00041910   -0.00031722
     atom    7 type  1   force =    -0.00044995    0.00025975    0.00030207
     atom    8 type  1   force =     0.00061745   -0.00053592   -0.00001934
     atom    9 type  1   force =     0.00036295   -0.00020958   -0.00031721
     atom   10 type  1   force =     0.00023265    0.00013430    0.00032737
     atom   11 type  1   force =     0.00077280   -0.00026675   -0.00001934
     atom   12 type  1   force =    -0.00000005    0.00026412    0.00021092
     atom   13 type  1   force =     0.00061225   -0.00035351   -0.00001895
     atom   14 type  1   force =     0.00015537    0.00080265   -0.00001934
     atom   15 type  1   force =     0.00022868   -0.00013206    0.00021093
     atom   16 type  1   force =     0.00000002    0.00070690   -0.00001894
     atom   17 type  1   force =     0.00000000   -0.00000005   -0.00010534
     atom   18 type  1   force =    -0.00036298   -0.00020958   -0.00031721
     atom   19 type  1   force =    -0.00023266    0.00013430    0.00032737
     atom   20 type  1   force =    -0.00077285   -0.00026676   -0.00001934
     atom   21 type  1   force =    -0.00020647    0.00011918    0.00074902
     atom   22 type  1   force =    -0.00000001   -0.00026868    0.00032737
     atom   23 type  1   force =    -0.00000004   -0.00000002   -0.00018630
     atom   24 type  1   force =    -0.00022878   -0.00013206    0.00021093
     atom   25 type  1   force =     0.00045000    0.00025974    0.00030207
     atom   26 type  1   force =    -0.00061745   -0.00053593   -0.00001934
     atom   27 type  1   force =    -0.00000005   -0.00023837    0.00074903

     Total force =     0.003952     Total SCF correction =     0.003196
     SCF correction compared to forces is large: reduce conv_thr to get better values

     Computing stress (Cartesian axis) and pressure

     negative rho (up, down):  4.850E+00 0.000E+00
          total   stress  (Ry/bohr**3)                   (kbar)     P=      -61.95
  -0.00057345  -0.00000000   0.00000000          -84.36       -0.00        0.00
   0.00000000  -0.00057345   0.00000000            0.00      -84.36        0.00
   0.00000000   0.00000000  -0.00011638            0.00        0.00      -17.12

     kinetic stress (kbar)  21347.69      0.00      0.00
                                0.00  21347.69     -0.00
                                0.00     -0.00  21753.86

     local   stress (kbar)-427749.28     -0.00     -0.00
                               -0.00-427749.29      0.00
                               -0.00      0.00 445239.92

     nonloc. stress (kbar)   -142.82     -0.00      0.00
                               -0.00   -142.82      0.00
                                0.00      0.00    -91.58

     hartree stress (kbar) 218206.75      0.00     -0.00
                                0.00 218206.75     -0.00
                               -0.00     -0.00-208309.96

     exc-cor stress (kbar)  15806.90      0.00      0.00
                                0.00  15806.90     -0.00
                                0.00     -0.00  15798.60

     corecor stress (kbar) -21783.55     -0.00      0.00
                               -0.00 -21783.55     -0.00
                                0.00     -0.00 -21797.52

     ewald   stress (kbar) 194229.96      0.00      0.00
                                0.00 194229.96     -0.00
                                0.00     -0.00-252610.43

     hubbard stress (kbar)      0.00      0.00      0.00
                                0.00      0.00      0.00
                                0.00      0.00      0.00

     DFT-D   stress (kbar)      0.00      0.00      0.00
                                0.00      0.00      0.00
                                0.00      0.00      0.00

     XDM     stress (kbar)      0.00      0.00      0.00
                                0.00      0.00      0.00
                                0.00      0.00      0.00

     dft-nl  stress (kbar)      0.00      0.00      0.00
                                0.00      0.00      0.00
                                0.00      0.00      0.00

     TS-vdW  stress (kbar)      0.00      0.00      0.00
                                0.00      0.00      0.00
                                0.00      0.00      0.00

     BFGS Geometry Optimization
     Energy error            =      0.0E+00
     Gradient error          =      9.4E-04

     bfgs converged in   1 scf cycles and   0 bfgs steps
     (criteria: energy <  1.0E-04 Ry, force <  1.0E-03 Ry/Bohr)

     End of BFGS Geometry Optimization

     Final energy   =   -5687.7911290701 Ry
Begin final coordinates

ATOMIC_POSITIONS (angstrom)
Pt           -0.0000014060        1.6235103461        4.5919809627
Pt            0.0000000000        0.0000000000        0.0000000000
Pt            1.4060019060        0.8117539554        2.2959870373
Pt           -1.4060019060        4.0587746475        4.5919809627
Pt           -1.4060005000        2.4352643015        0.0000000000
Pt            0.0000014060        3.2470182569        2.2959870373
Pt           -2.8120024060        6.4940389490        4.5919809627
Pt           -2.8120010000        4.8705286029        0.0000000000
Pt           -1.4059990940        5.6822825583        2.2959870373
Pt            2.8119995940        1.6235103461        4.5919809627
Pt            2.8120010000        0.0000000000        0.0000000000
Pt            4.2180029060        0.8117539554        2.2959870373
Pt            1.4059990940        4.0587746475        4.5919809627
Pt            1.4060005000        2.4352643015        0.0000000000
Pt            2.8120024060        3.2470182569        2.2959870373
Pt           -0.0000014060        6.4940389490        4.5919809627
Pt            0.0000000000        4.8705286029        0.0000000000
Pt            1.4060019060        5.6822825583        2.2959870373
Pt            5.6240005940        1.6235103461        4.5919809627
Pt            5.6240020000        0.0000000000        0.0000000000
Pt            7.0300039060        0.8117539554        2.2959870373
Pt            4.2180000940        4.0587746475        4.5919809627
Pt            4.2180015000        2.4352643015        0.0000000000
Pt            5.6240034060        3.2470182569        2.2959870373
Pt            2.8119995940        6.4940389490        4.5919809627
Pt            2.8120010000        4.8705286029        0.0000000000
Pt            4.2180029060        5.6822825583        2.2959870373
End final coordinates

     Writing output data file ./surface.save/

     General routines

     Parallel routines

   This run was terminated on:  19:22:28   6Dec2021

   JOB DONE.