     Program PWSCF v.6.7MaX starts on  5Dec2021 at 22:37:14

     R & G space division:  proc/nbgrp/npool/nimage =      32
     Reading input from pt_surface.100.qe.in

     Current dimensions of program PWSCF are:
     Max number of different atomic species (ntypx) = 10
     Max number of k-points (npk) =  40000
     Max angular momentum in pseudopotentials (lmaxx) =  3

     Found symmetry operation: I + (  0.2500  0.2500  0.0000)
     This is a supercell, fractional translations are disabled

     bravais-lattice index     =            8
     lattice parameter (alat)  =      15.0300  a.u.
     unit-cell volume          =    5966.5648 (a.u.)^3
     number of atoms/cell      =           16
     number of atomic types    =            1
     number of electrons       =       256.00
     number of Kohn-Sham states=          154
     kinetic-energy cutoff     =      30.0000  Ry
     charge density cutoff     =     300.0000  Ry
     scf convergence threshold =      1.0E-06
     mixing beta               =       0.3000
     number of iterations used =            8  plain     mixing
     energy convergence thresh.=      1.0E-04
     force convergence thresh. =      1.0E-03
     Exchange-correlation=  SLA  PW   PBX  PBC
                           (   1   4   3   4   0   0   0)
     nstep                     =           50

     celldm(1)=  15.030012  celldm(2)=   1.000000  celldm(3)=   1.757302
     celldm(4)=   0.000000  celldm(5)=   0.000000  celldm(6)=   0.000000

     crystal axes: (cart. coord. in units of alat)
               a(1) = (   1.000000   0.000000   0.000000 )
               a(2) = (   0.000000   1.000000   0.000000 )
               a(3) = (   0.000000   0.000000   1.757302 )

     reciprocal axes: (cart. coord. in units 2 pi/alat)
               b(1) = (  1.000000  0.000000  0.000000 )
               b(2) = (  0.000000  1.000000  0.000000 )
               b(3) = (  0.000000  0.000000  0.569054 )

     PseudoPot. # 1 for Pt read from file:
     /expanse/lustre/projects/csd622/tpascal/nano110/qe/pseudo/pt_pbe_v1.4.uspp.F.UPF
     MD5 check sum: f09d6de1a584b5a045c4fc126da2d0c4
     Pseudo is Ultrasoft + core correction, Zval = 16.0
     Generated by new atomic code, or converted to UPF format
     Using radial grid of  985 points,  6 beta functions with:
                l(1) =   0
                l(2) =   0
                l(3) =   1
                l(4) =   1
                l(5) =   2
                l(6) =   2
     Q(r) pseudized with  8 coefficients,  rinner =    1.300   1.300   1.300
                                                       1.300   1.300

     atomic species   valence    mass     pseudopotential
        Pt            16.00   195.08400     Pt( 1.00)

      8 Sym. Ops. (no inversion) found

                                    s                        frac. trans.

      isym =  1     identity

 cryst.   s( 1) = (     1          0          0      )
                  (     0          1          0      )
                  (     0          0          1      )

 cart.    s( 1) = (  1.0000000  0.0000000  0.0000000 )
                  (  0.0000000  1.0000000  0.0000000 )
                  (  0.0000000  0.0000000  1.0000000 )

      isym =  2     180 deg rotation - cart. axis [0,0,1]

[...]

      isym =  4      90 deg rotation - cart. axis [0,0,1]

[...]

      isym =  5     inv. 180 deg rotation - cart. axis [0,1,0]

[...]

      isym =  8     inv. 180 deg rotation - cart. axis [1,-1,0]

 cryst.   s( 8) = (     0          1          0      )
                  (     1          0          0      )
                  (     0          0          1      )

 cart.    s( 8) = (  0.0000000  1.0000000  0.0000000 )
                  (  1.0000000  0.0000000  0.0000000 )
                  (  0.0000000  0.0000000  1.0000000 )

     point group C_4v (4mm)
     there are  5 classes
     the character table:

       E     2C4   C2    2s_v  2s_d
A_1    1.00  1.00  1.00  1.00  1.00
A_2    1.00  1.00  1.00 -1.00 -1.00
B_1    1.00 -1.00  1.00  1.00 -1.00
B_2    1.00 -1.00  1.00 -1.00  1.00
E      2.00  0.00 -2.00  0.00  0.00

     the symmetry operations in each class and the name of the first element:

     E        1
          identity
     2C4      3    4
           90 deg rotation - cart. axis [0,0,-1]
     C2       2
          180 deg rotation - cart. axis [0,0,1]
     2s_v     5    6
          inv. 180 deg rotation - cart. axis [0,1,0]
     2s_d     7    8
          inv. 180 deg rotation - cart. axis [1,1,0]

   Cartesian axes

     site n.     atom                  positions (alat units)
         1           Pt  tau(   1) = (   0.0000000   0.0000000   0.0000000  )
         2           Pt  tau(   2) = (   0.5000000   0.2500000   0.2500000  )
         3           Pt  tau(   3) = (   0.2500000   0.0000000   0.2500000  )
         4           Pt  tau(   4) = (   0.2500000   0.2500000   0.0000000  )
         5           Pt  tau(   5) = (   0.0000000   0.5000000   0.0000000  )
         6           Pt  tau(   6) = (   0.5000000   0.7500000   0.2500000  )
         7           Pt  tau(   7) = (   0.2500000   0.5000000   0.2500000  )
         8           Pt  tau(   8) = (   0.2500000   0.7500000   0.0000000  )
         9           Pt  tau(   9) = (   0.5000000   0.0000000   0.0000000  )
        10           Pt  tau(  10) = (   1.0000000   0.2500000   0.2500000  )
        11           Pt  tau(  11) = (   0.7500000   0.0000000   0.2500000  )
        12           Pt  tau(  12) = (   0.7500000   0.2500000   0.0000000  )
        13           Pt  tau(  13) = (   0.5000000   0.5000000   0.0000000  )
        14           Pt  tau(  14) = (   1.0000000   0.7500000   0.2500000  )
        15           Pt  tau(  15) = (   0.7500000   0.5000000   0.2500000  )
        16           Pt  tau(  16) = (   0.7500000   0.7500000   0.0000000  )

   Crystallographic axes

     site n.     atom                  positions (cryst. coord.)
         1           Pt  tau(   1) = (  0.0000000  0.0000000  0.0000000  )
         2           Pt  tau(   2) = (  0.5000000  0.2500000  0.1422636  )
         3           Pt  tau(   3) = (  0.2500000  0.0000000  0.1422636  )
         4           Pt  tau(   4) = (  0.2500000  0.2500000  0.0000000  )
         5           Pt  tau(   5) = (  0.0000000  0.5000000  0.0000000  )
         6           Pt  tau(   6) = (  0.5000000  0.7500000  0.1422636  )
         7           Pt  tau(   7) = (  0.2500000  0.5000000  0.1422636  )
         8           Pt  tau(   8) = (  0.2500000  0.7500000  0.0000000  )
         9           Pt  tau(   9) = (  0.5000000  0.0000000  0.0000000  )
        10           Pt  tau(  10) = (  1.0000000  0.2500000  0.1422636  )
        11           Pt  tau(  11) = (  0.7500000  0.0000000  0.1422636  )
        12           Pt  tau(  12) = (  0.7500000  0.2500000  0.0000000  )
        13           Pt  tau(  13) = (  0.5000000  0.5000000  0.0000000  )
        14           Pt  tau(  14) = (  1.0000000  0.7500000  0.1422636  )
        15           Pt  tau(  15) = (  0.7500000  0.5000000  0.1422636  )
        16           Pt  tau(  16) = (  0.7500000  0.7500000  0.0000000  )

     number of k points=     6  Gaussian smearing, width (Ry)=  0.0030
                       cart. coord. in units 2pi/alat
        k(    1) = (   0.0000000   0.0000000   0.0000000), wk =   0.1250000
        k(    2) = (   0.0000000   0.2500000   0.0000000), wk =   0.5000000
        k(    3) = (   0.0000000  -0.5000000   0.0000000), wk =   0.2500000
        k(    4) = (   0.2500000   0.2500000   0.0000000), wk =   0.5000000
        k(    5) = (   0.2500000  -0.5000000   0.0000000), wk =   0.5000000
        k(    6) = (  -0.5000000  -0.5000000   0.0000000), wk =   0.1250000

                       cryst. coord.
        k(    1) = (   0.0000000   0.0000000   0.0000000), wk =   0.1250000
        k(    2) = (   0.0000000   0.2500000   0.0000000), wk =   0.5000000
        k(    3) = (   0.0000000  -0.5000000   0.0000000), wk =   0.2500000
        k(    4) = (   0.2500000   0.2500000   0.0000000), wk =   0.5000000
        k(    5) = (   0.2500000  -0.5000000   0.0000000), wk =   0.5000000
        k(    6) = (  -0.5000000  -0.5000000   0.0000000), wk =   0.1250000

     Initial potential from superposition of free atoms

     starting charge  247.99982, renormalised to  256.00000

     negative rho (up, down):  3.024E+00 0.000E+00
     Starting wfcs are  192 randomized atomic wfcs

     Self-consistent Calculation

     iteration #  1     ecut=    30.00 Ry     beta= 0.30
     Davidson diagonalization with overlap
     ethr =  1.00E-02,  avg # of iterations =  6.8

     negative rho (up, down):  2.871E+00 0.000E+00

     total energy              =   -3363.86295353 Ry
     estimated scf accuracy    <      29.49219417 Ry

[...]

     End of self-consistent calculation

          k = 0.0000 0.0000 0.0000 ( 16575 PWs)   bands (ev):

   -50.3279 -50.3279 -50.3125 -50.3125 -50.3124 -50.3124 -50.2241 -50.2241
   -50.2240 -50.2239 -50.2138 -50.2138 -50.2103 -50.2103 -50.2101 -50.2101
   -50.1826 -50.1826 -50.1824 -50.1824 -50.1289 -50.1289 -50.1288 -50.1288
   -50.1191 -50.1191 -50.1145 -50.0644 -50.0644 -50.0643 -50.0643 -50.0430
   -50.0430 -50.0259 -50.0259 -50.0258 -50.0258 -49.9799 -49.9798 -49.9779
   -49.9777 -49.9777 -49.9777 -49.9369 -49.9369 -49.9367 -49.9367 -49.9215
    -5.5500  -3.5161  -3.2604  -3.2604  -3.2604  -3.2604  -3.2311  -3.2311
    -3.2311  -3.2311  -3.1132  -2.9863  -2.9863  -2.4797  -2.4797  -1.9856
    -1.9856  -1.9856  -1.9855  -1.7761  -1.7761  -1.7760  -1.7760  -1.7682
    -1.2196  -1.2196  -1.2196  -1.2196  -1.1129  -1.1129  -1.1129  -1.1129
    -0.5991  -0.5991  -0.5990  -0.5990  -0.4732  -0.4732  -0.4732  -0.4731
    -0.2835  -0.2834  -0.2834  -0.2833  -0.2748  -0.2748  -0.2747  -0.2747
    -0.0844  -0.0844   0.1955   0.4370   0.4370   0.4371   0.4371   0.5396
     0.5396   0.5396   0.5396   0.6774   0.6774   0.6775   0.6775   0.7633
     0.7633   0.9225   1.3326   1.3886   1.3887   1.3887   1.3887   1.4326
     1.4327   1.6774   1.6774   1.6775   1.6775   1.7194   1.7194   1.7194
     1.7195   1.9439   1.9439   2.1001   2.8883   2.8884   3.7995   3.7995
     3.7995   3.7995   3.9149   3.9149   3.9149   3.9149   4.0100   6.2191
     6.2191   6.2192   6.2192   6.5069   6.5069   7.4739   7.8261   8.0039
     8.0040   8.0040

     occupation numbers
     1.0000   1.0000   1.0000   1.0000   1.0000   1.0000   1.0000   1.0000
     1.0000   1.0000   1.0000   1.0000   1.0000   1.0000   1.0000   1.0000
     1.0000   1.0000   1.0000   1.0000   1.0000   1.0000   1.0000   1.0000
     1.0000   1.0000   1.0000   1.0000   1.0000   1.0000   1.0000   1.0000
     1.0000   1.0000   1.0000   1.0000   1.0000   1.0000   1.0000   1.0000
     1.0000   1.0000   1.0000   1.0000   1.0000   1.0000   1.0000   1.0000
     1.0000   1.0000   1.0000   1.0000   1.0000   1.0000   1.0000   1.0000
     1.0000   1.0000   1.0000   1.0000   1.0000   1.0000   1.0000   1.0000
     1.0000   1.0000   1.0000   1.0000   1.0000   1.0000   1.0000   1.0000
     1.0000   1.0000   1.0000   1.0000   1.0000   1.0000   1.0000   1.0000
     1.0000   1.0000   1.0000   1.0000   1.0000   1.0000   1.0000   1.0000
[...]

[...]

          k =-0.5000-0.5000 0.0000 ( 16564 PWs)   bands (ev):

   -50.4005 -50.4005 -50.4005 -50.4005 -50.4005 -50.4005 -50.4005 -50.4005
   -50.3226 -50.3226 -50.3226 -50.3226 -50.2843 -50.2842 -50.2842 -50.2842
   -50.2278 -50.2278 -50.2278 -50.2278 -50.2278 -50.2278 -50.2278 -50.2278
   -50.1900 -50.1900 -50.1900 -50.1900 -50.1189 -50.1189 -50.1189 -50.1189
   -50.1128 -50.1128 -50.1128 -50.1128 -50.0505 -50.0505 -50.0505 -50.0505
   -50.0505 -50.0505 -50.0505 -50.0505 -49.9862 -49.9862 -49.9862 -49.9862
    -4.5797  -4.5797  -4.5796  -4.5796  -3.3218  -3.3218  -3.3218  -3.3218
    -2.8135  -2.8135  -2.8135  -2.8135  -2.8134  -2.8134  -2.8134  -2.8134
    -2.2387  -2.2387  -2.2387  -2.2387  -2.2387  -2.2387  -2.2387  -2.2387
    -2.0839  -2.0839  -2.0839  -2.0839  -1.0158  -1.0158  -1.0158  -1.0158
    -0.9765  -0.9765  -0.9764  -0.9764  -0.3703  -0.3703  -0.3703  -0.3703
    -0.2048  -0.2048  -0.2047  -0.2047  -0.2047  -0.2047  -0.2047  -0.2047
     0.1002   0.1002   0.1003   0.1003   0.1161   0.1161   0.1161   0.1161
     0.8996   0.8996   0.8996   0.8996   0.8996   0.8996   0.8996   0.8996
     0.9151   0.9151   0.9151   0.9151   1.5365   1.5365   1.5365   1.5365
     1.5365   1.5365   1.5365   1.5365   1.6135   1.6135   1.6135   1.6135
     2.1814   2.1814   2.1814   2.1814   2.4015   2.4015   2.4016   2.4016
     5.1266   5.1266   5.1266   5.1266   5.1266   5.1266   5.1266   5.1266
     6.5203   6.5203   6.5203   6.5203   7.8520   7.8520   7.8520   7.8521
     7.8521   7.8521

     occupation numbers
     1.0000   1.0000   1.0000   1.0000   1.0000   1.0000   1.0000   1.0000
     1.0000   1.0000   1.0000   1.0000   1.0000   1.0000   1.0000   1.0000
     1.0000   1.0000   1.0000   1.0000   1.0000   1.0000   1.0000   1.0000
     1.0000   1.0000   1.0000   1.0000   1.0000   1.0000   1.0000   1.0000
     1.0000   1.0000   1.0000   1.0000   1.0000   1.0000   1.0000   1.0000
     1.0000   1.0000   1.0000   1.0000   1.0000   1.0000   1.0000   1.0000
     1.0000   1.0000   1.0000   1.0000   1.0000   1.0000   1.0000   1.0000
     1.0000   1.0000   1.0000   1.0000   1.0000   1.0000   1.0000   1.0000
     1.0000   1.0000   1.0000   1.0000   1.0000   1.0000   1.0000   1.0000
     1.0000   1.0000   1.0000   1.0000   1.0000   1.0000   1.0000   1.0000
     1.0000   1.0000   1.0000   1.0000   1.0000   1.0000   1.0000   1.0000
     1.0000   1.0000   1.0000   1.0000   1.0000   1.0000   1.0000   1.0000
     1.0000   1.0000   1.0000   1.0000   1.0000   1.0000   1.0000   1.0000
     1.0000   1.0000   1.0000   1.0000   1.0000   1.0000   1.0000   1.0000
     1.0000   1.0000   1.0000   1.0000   1.0000   1.0000   1.0000   1.0000
     1.0000   1.0000   1.0000   1.0000   1.0000   1.0000   1.0000   1.0000
     0.0000   0.0000   0.0000   0.0000   0.0000   0.0000   0.0000   0.0000
     0.0000   0.0000   0.0000   0.0000   0.0000   0.0000   0.0000   0.0000
     0.0000   0.0000   0.0000   0.0000   0.0000   0.0000   0.0000   0.0000
     0.0000   0.0000

     the Fermi energy is     1.9447 ev

!    total energy              =   -3369.97312643 Ry
     estimated scf accuracy    <          8.2E-09 Ry
     smearing contrib. (-TS)   =      -0.00211100 Ry
     internal energy E=F+TS    =   -3369.97101543 Ry

     The total energy is F=E-TS. E is the sum of the following terms:
     one-electron contribution =   -9353.61801178 Ry
     hartree contribution      =    4722.09347610 Ry
     xc contribution           =    -908.42785264 Ry
     ewald contribution        =    2169.98137290 Ry

     convergence has been achieved in   9 iterations

     negative rho (up, down):  2.835E+00 0.000E+00

     Forces acting on atoms (cartesian axes, Ry/au):

     atom    1 type  1   force =     0.00000000    0.00000000   -0.00005919
     atom    2 type  1   force =     0.00000000   -0.00000130    0.00005848
     atom    3 type  1   force =    -0.00000194    0.00000000    0.00006012
     atom    4 type  1   force =     0.00000024    0.00000024   -0.00005844
     atom    5 type  1   force =     0.00000000    0.00000000   -0.00005867
     atom    6 type  1   force =     0.00000000    0.00000130    0.00005848
     atom    7 type  1   force =    -0.00000130    0.00000000    0.00005848
     atom    8 type  1   force =     0.00000024   -0.00000024   -0.00005844
     atom    9 type  1   force =     0.00000000    0.00000000   -0.00005867
     atom   10 type  1   force =     0.00000000   -0.00000194    0.00006012
     atom   11 type  1   force =     0.00000194    0.00000000    0.00006012
     atom   12 type  1   force =    -0.00000024    0.00000024   -0.00005844
     atom   13 type  1   force =     0.00000000    0.00000000   -0.00006409
     atom   14 type  1   force =     0.00000000    0.00000194    0.00006012
     atom   15 type  1   force =     0.00000130    0.00000000    0.00005848
     atom   16 type  1   force =    -0.00000024   -0.00000024   -0.00005844
     The non-local contrib.  to forces
     atom    1 type  1   force =     0.00000000    0.00000000   -0.08793033
     atom    2 type  1   force =     0.00000000   -0.00000767    0.08794264
     atom    3 type  1   force =     0.00000386   -0.00000000    0.08794489
     atom    4 type  1   force =     0.00000145    0.00000145   -0.08793401
     atom    5 type  1   force =     0.00000000    0.00000000   -0.08792760
     atom    6 type  1   force =     0.00000000    0.00000767    0.08794264
     atom    7 type  1   force =    -0.00000767    0.00000000    0.08794264
     atom    8 type  1   force =     0.00000145   -0.00000145   -0.08793401
     atom    9 type  1   force =     0.00000000    0.00000000   -0.08792760
     atom   10 type  1   force =     0.00000000    0.00000386    0.08794489
     atom   11 type  1   force =    -0.00000386    0.00000000    0.08794489
     atom   12 type  1   force =    -0.00000145    0.00000145   -0.08793401
     atom   13 type  1   force =     0.00000000    0.00000000   -0.08793598
     atom   14 type  1   force =     0.00000000   -0.00000386    0.08794489
     atom   15 type  1   force =     0.00000767    0.00000000    0.08794264
     atom   16 type  1   force =    -0.00000145   -0.00000145   -0.08793401
     The ionic contribution  to forces
     atom    1 type  1   force =     0.00000000   -0.00000000  -77.65633269
     atom    2 type  1   force =     0.00000000   -0.00113422   77.65554960
     atom    3 type  1   force =     0.00077191    0.00000000   77.65560233
     atom    4 type  1   force =     0.00010610    0.00010610  -77.65543232
     atom    5 type  1   force =     0.00000000    0.00000000  -77.65514430
     atom    6 type  1   force =    -0.00000000    0.00113422   77.65554960
     atom    7 type  1   force =    -0.00113422    0.00000000   77.65554960
     atom    8 type  1   force =     0.00010610   -0.00010610  -77.65543232
     atom    9 type  1   force =     0.00000000   -0.00000000  -77.65514430
     atom   10 type  1   force =     0.00000000    0.00077191   77.65560233
     atom   11 type  1   force =    -0.00077191    0.00000000   77.65560233
     atom   12 type  1   force =    -0.00010610    0.00010610  -77.65543232
     atom   13 type  1   force =    -0.00000000   -0.00000000  -77.65625715
     atom   14 type  1   force =    -0.00000000   -0.00077191   77.65560233
     atom   15 type  1   force =     0.00113422   -0.00000000   77.65554960
     atom   16 type  1   force =    -0.00010610   -0.00010610  -77.65543232
     The local contribution  to forces
     atom    1 type  1   force =    -0.00000000   -0.00000000   77.71558388
     atom    2 type  1   force =     0.00000000    0.00111677  -77.71489726
     atom    3 type  1   force =    -0.00074933   -0.00000000  -77.71495577
     atom    4 type  1   force =    -0.00011209   -0.00011209   77.71470678
     atom    5 type  1   force =    -0.00000000    0.00000000   77.71438184
     atom    6 type  1   force =     0.00000000   -0.00111677  -77.71489726
     atom    7 type  1   force =     0.00111677    0.00000000  -77.71489726
     atom    8 type  1   force =    -0.00011209    0.00011209   77.71470678
     atom    9 type  1   force =     0.00000000   -0.00000000   77.71438184
     atom   10 type  1   force =     0.00000000   -0.00074933  -77.71495577
     atom   11 type  1   force =     0.00074933   -0.00000000  -77.71495577
     atom   12 type  1   force =     0.00011209   -0.00011209   77.71470678
     atom   13 type  1   force =     0.00000000    0.00000000   77.71552017
     atom   14 type  1   force =     0.00000000    0.00074933  -77.71495577
     atom   15 type  1   force =    -0.00111677    0.00000000  -77.71489726
     atom   16 type  1   force =     0.00011209    0.00011209   77.71470678
     The core correction contribution to forces
     atom    1 type  1   force =     0.00000000    0.00000000    0.02857888
     atom    2 type  1   force =     0.00000000    0.00000077   -0.02857565
     atom    3 type  1   force =    -0.00000089    0.00000000   -0.02857554
     atom    4 type  1   force =    -0.00000015   -0.00000015    0.02857830
     atom    5 type  1   force =     0.00000000   -0.00000000    0.02857938
     atom    6 type  1   force =     0.00000000   -0.00000077   -0.02857565
     atom    7 type  1   force =     0.00000077    0.00000000   -0.02857565
     atom    8 type  1   force =    -0.00000015    0.00000015    0.02857830
     atom    9 type  1   force =    -0.00000000    0.00000000    0.02857938
     atom   10 type  1   force =    -0.00000000   -0.00000089   -0.02857554
     atom   11 type  1   force =     0.00000089    0.00000000   -0.02857554
     atom   12 type  1   force =     0.00000015   -0.00000015    0.02857830
     atom   13 type  1   force =     0.00000000    0.00000000    0.02857913
     atom   14 type  1   force =     0.00000000    0.00000089   -0.02857554
     atom   15 type  1   force =    -0.00000077    0.00000000   -0.02857565
     atom   16 type  1   force =     0.00000015    0.00000015    0.02857830
     The Hubbard contrib.    to forces
     atom    1 type  1   force =     0.00000000    0.00000000    0.00000000
     atom    2 type  1   force =     0.00000000    0.00000000    0.00000000
     atom    3 type  1   force =     0.00000000    0.00000000    0.00000000
     atom    4 type  1   force =     0.00000000    0.00000000    0.00000000
     atom    5 type  1   force =     0.00000000    0.00000000    0.00000000
     atom    6 type  1   force =     0.00000000    0.00000000    0.00000000
     atom    7 type  1   force =     0.00000000    0.00000000    0.00000000
     atom    8 type  1   force =     0.00000000    0.00000000    0.00000000
     atom    9 type  1   force =     0.00000000    0.00000000    0.00000000
     atom   10 type  1   force =     0.00000000    0.00000000    0.00000000
     atom   11 type  1   force =     0.00000000    0.00000000    0.00000000
     atom   12 type  1   force =     0.00000000    0.00000000    0.00000000
     atom   13 type  1   force =     0.00000000    0.00000000    0.00000000
     atom   14 type  1   force =     0.00000000    0.00000000    0.00000000
     atom   15 type  1   force =     0.00000000    0.00000000    0.00000000
     atom   16 type  1   force =     0.00000000    0.00000000    0.00000000
     The SCF correction term to forces
     atom    1 type  1   force =    -0.00000000    0.00000000    0.00005035
     atom    2 type  1   force =    -0.00000000    0.00002306    0.00004843
     atom    3 type  1   force =    -0.00002749   -0.00000000    0.00005349
     atom    4 type  1   force =     0.00000493    0.00000493    0.00003209
     atom    5 type  1   force =    -0.00000000   -0.00000000    0.00006129
     atom    6 type  1   force =    -0.00000000   -0.00002306    0.00004843
     atom    7 type  1   force =     0.00002306   -0.00000000    0.00004843
     atom    8 type  1   force =     0.00000493   -0.00000493    0.00003209
     atom    9 type  1   force =    -0.00000000    0.00000000    0.00006129
     atom   10 type  1   force =    -0.00000000   -0.00002749    0.00005349
     atom   11 type  1   force =     0.00002749    0.00000000    0.00005349
     atom   12 type  1   force =    -0.00000493    0.00000493    0.00003209
     atom   13 type  1   force =    -0.00000000    0.00000000    0.00003900
     atom   14 type  1   force =    -0.00000000    0.00002749    0.00005349
     atom   15 type  1   force =    -0.00002306   -0.00000000    0.00004843
     atom   16 type  1   force =    -0.00000493   -0.00000493    0.00003209

     Total force =     0.000237     Total SCF correction =     0.000205
     SCF correction compared to forces is large: reduce conv_thr to get better values

     Computing stress (Cartesian axis) and pressure

     negative rho (up, down):  2.835E+00 0.000E+00
          total   stress  (Ry/bohr**3)                   (kbar)     P=      -49.55
  -0.00045864   0.00000000   0.00000000          -67.47        0.00        0.00
   0.00000000  -0.00045864   0.00000000            0.00      -67.47        0.00
   0.00000000   0.00000000  -0.00009323            0.00        0.00      -13.71

     kinetic stress (kbar)  14904.48      0.00      0.00
                                0.00  14904.48      0.00
                                0.00      0.00  15152.34

     local   stress (kbar)-212523.55      0.00      0.00
                                0.00-212523.55      0.00
                                0.00      0.00 222819.14

     nonloc. stress (kbar)   -114.04      0.00      0.00
                                0.00   -114.04      0.00
                                0.00      0.00    -62.96

     hartree stress (kbar) 108828.16      0.00      0.00
                                0.00 108828.16     -0.00
                                0.00     -0.00-101233.57

     exc-cor stress (kbar)  11031.52      0.00      0.00
                                0.00  11031.52     -0.00
                                0.00     -0.00  11023.51

     corecor stress (kbar) -15198.07     -0.00     -0.00
                               -0.00 -15198.07     -0.00
                               -0.00     -0.00 -15204.77

     ewald   stress (kbar)  93004.04      0.00      0.00
                                0.00  93004.04     -0.00
                                0.00     -0.00-132507.40

     hubbard stress (kbar)      0.00      0.00      0.00
                                0.00      0.00      0.00
                                0.00      0.00      0.00

     DFT-D   stress (kbar)      0.00      0.00      0.00
                                0.00      0.00      0.00
                                0.00      0.00      0.00

     XDM     stress (kbar)      0.00      0.00      0.00
                                0.00      0.00      0.00
                                0.00      0.00      0.00

     dft-nl  stress (kbar)      0.00      0.00      0.00
                                0.00      0.00      0.00
                                0.00      0.00      0.00

     TS-vdW  stress (kbar)      0.00      0.00      0.00
                                0.00      0.00      0.00
                                0.00      0.00      0.00

     Energy error            =      2.3E-05
     Gradient error          =      6.4E-05

     bfgs converged in   5 scf cycles and   4 bfgs steps
     (criteria: energy <  1.0E-04 Ry, force <  1.0E-03 Ry/Bohr)

     End of BFGS Geometry Optimization

     Final energy   =   -3369.9731264251 Ry

     File ./surface.bfgs deleted, as requested
Begin final coordinates

ATOMIC_POSITIONS (angstrom)
Pt            0.0000000000        0.0000000000        0.0520508034
Pt            3.9767700000        1.9884023316        1.9363252279
Pt            1.9883754841        0.0000000000        1.9363238296
Pt            1.9883816177        1.9883816177        0.0520631320
Pt            0.0000000000        3.9767700000        0.0520597753
Pt            3.9767700000        5.9651376684        1.9363252279
Pt            1.9884023316        3.9767700000        1.9363252279
Pt            1.9883816177        5.9651583823        0.0520631320
Pt            3.9767700000        0.0000000000        0.0520597753
Pt            7.9535400000        1.9883754841        1.9363238296
Pt            5.9651645159       -0.0000000000        1.9363238296
Pt            5.9651583823        1.9883816177        0.0520631320
Pt            3.9767700000        3.9767700000        0.0520608880
Pt            7.9535400000        5.9651645159        1.9363238296
Pt            5.9651376684        3.9767700000        1.9363252279
Pt            5.9651583823        5.9651583823        0.0520631320
End final coordinates

     Writing output data file ./surface.save/

     General routines

     Parallel routines

   This run was terminated on:  22:39:44   5Dec2021

   JOB DONE.