     Program PWSCF v.6.7MaX starts on  9Dec2021 at 17:50:26

     R & G space division:  proc/nbgrp/npool/nimage =      32
     Reading input from au_surface.111.qe.in

     Current dimensions of program PWSCF are:
     Max number of different atomic species (ntypx) = 10
     Max number of k-points (npk) =  40000
     Max angular momentum in pseudopotentials (lmaxx) =  3

     Found symmetry operation: I + (  0.0000  0.3333  0.0000)
     This is a supercell, fractional translations are disabled

     bravais-lattice index     =           14
     lattice parameter (alat)  =      16.7215  a.u.
     unit-cell volume          =    7882.0011 (a.u.)^3
     number of atoms/cell      =           27
     number of atomic types    =            1
     number of electrons       =       297.00
     number of Kohn-Sham states=          179
     kinetic-energy cutoff     =      30.0000  Ry
     charge density cutoff     =     300.0000  Ry
     scf convergence threshold =      1.0E-06
     mixing beta               =       0.3000
     number of iterations used =            8  plain     mixing
     energy convergence thresh.=      1.0E-04
     force convergence thresh. =      1.0E-03
     Exchange-correlation= SLA  PW   PBE  PBE
                           (   1   4   3   4   0   0   0)
     nstep                     =           50

     celldm(1)=  16.721506  celldm(2)=   1.000000  celldm(3)=   1.946613
     celldm(4)=   0.000000  celldm(5)=   0.000000  celldm(6)=  -0.500000

     crystal axes: (cart. coord. in units of alat)
               a(1) = (   1.000000   0.000000   0.000000 )
               a(2) = (  -0.500000   0.866025   0.000000 )
               a(3) = (   0.000000   0.000000   1.946613 )

     reciprocal axes: (cart. coord. in units 2 pi/alat)
               b(1) = (  1.000000  0.577350 -0.000000 )
               b(2) = (  0.000000  1.154701  0.000000 )
               b(3) = (  0.000000 -0.000000  0.513713 )

     PseudoPot. # 1 for Au read from file:
     /expanse/lustre/projects/csd622/tpascal/nano110/qe/pseudo/au_pbe_v1.uspp.F.UPF
     MD5 check sum: 9d7f43293ad2c663164586bc4b293ffc
     Pseudo is Ultrasoft + core correction, Zval = 11.0
     Generated by new atomic code, or converted to UPF format
     Using radial grid of  985 points,  7 beta functions with:
                l(1) =   0
                l(2) =   0
                l(3) =   1
                l(4) =   1
                l(5) =   2
                l(6) =   2
                l(7) =   3
     Q(r) pseudized with  6 coefficients,  rinner =    1.900   1.900   1.900
                                                       1.900   1.900   1.900
                                                       1.900

     atomic species   valence    mass     pseudopotential
        Au            11.00   196.96655     Au( 1.00)

      6 Sym. Ops. (no inversion) found

                                    s                        frac. trans.

      isym =  1     identity

 cryst.   s( 1) = (     1          0          0      )
                  (     0          1          0      )
                  (     0          0          1      )

 cart.    s( 1) = (  1.0000000  0.0000000  0.0000000 )
                  (  0.0000000  1.0000000  0.0000000 )
                  (  0.0000000  0.0000000  1.0000000 )

      isym =  2     120 deg rotation - cryst. axis [0,0,1]

[...]

      isym =  3     120 deg rotation - cryst. axis [0,0,-1]

[...]

      isym =  4     inv. 180 deg rotation - cart. axis [1,0,0]

[...]

      isym =  5     inv. 180 deg rotation - cryst. axis [0,1,0]

[...]

      isym =  6     inv. 180 deg rotation - cryst. axis [1,1,0]

 cryst.   s( 6) = (     0         -1          0      )
                  (    -1          0          0      )
                  (     0          0          1      )

 cart.    s( 6) = (  0.5000000 -0.8660254  0.0000000 )
                  ( -0.8660254 -0.5000000  0.0000000 )
                  (  0.0000000  0.0000000  1.0000000 )

     point group C_3v (3m)
     there are  3 classes
     the character table:

       E     2C3   3s_v
A_1    1.00  1.00  1.00
A_2    1.00  1.00 -1.00
E      2.00 -1.00  0.00

     the symmetry operations in each class and the name of the first element:

     E        1
          identity
     2C3      2    3
          120 deg rotation - cryst. axis [0,0,1]
     3s_v     4    5    6
          inv. 180 deg rotation - cart. axis [1,0,0]

   Cartesian axes

     site n.     atom                  positions (alat units)
         1           Au  tau(   1) = (  -0.0000002   0.1924501   0.5443312  )
         2           Au  tau(   2) = (   0.0000000   0.0000000   0.0000000  )
         3           Au  tau(   3) = (   0.1666668   0.0962249   0.2721652  )
         4           Au  tau(   4) = (  -0.1666668   0.4811252   0.5443312  )
         5           Au  tau(   5) = (  -0.1666666   0.2886751   0.0000000  )
         6           Au  tau(   6) = (   0.0000002   0.3849000   0.2721652  )
         7           Au  tau(   7) = (  -0.3333334   0.7698003   0.5443312  )
         8           Au  tau(   8) = (  -0.3333333   0.5773501   0.0000000  )
         9           Au  tau(   9) = (  -0.1666665   0.6735751   0.2721652  )
        10           Au  tau(  10) = (   0.3333331   0.1924501   0.5443312  )
        11           Au  tau(  11) = (   0.3333333   0.0000000   0.0000000  )
        12           Au  tau(  12) = (   0.5000001   0.0962249   0.2721652  )
        13           Au  tau(  13) = (   0.1666665   0.4811252   0.5443312  )
        14           Au  tau(  14) = (   0.1666666   0.2886751   0.0000000  )
        15           Au  tau(  15) = (   0.3333334   0.3849000   0.2721652  )
        16           Au  tau(  16) = (  -0.0000002   0.7698003   0.5443312  )
        17           Au  tau(  17) = (   0.0000000   0.5773501   0.0000000  )
        18           Au  tau(  18) = (   0.1666668   0.6735751   0.2721652  )
        19           Au  tau(  19) = (   0.6666663   0.1924501   0.5443312  )
        20           Au  tau(  20) = (   0.6666665   0.0000000   0.0000000  )
        21           Au  tau(  21) = (   0.8333333   0.0962249   0.2721652  )
        22           Au  tau(  22) = (   0.4999997   0.4811252   0.5443312  )
        23           Au  tau(  23) = (   0.4999999   0.2886751   0.0000000  )
        24           Au  tau(  24) = (   0.6666667   0.3849000   0.2721652  )
        25           Au  tau(  25) = (   0.3333331   0.7698003   0.5443312  )
        26           Au  tau(  26) = (   0.3333333   0.5773501   0.0000000  )
        27           Au  tau(  27) = (   0.5000001   0.6735751   0.2721652  )

   Crystallographic axes

     site n.     atom                  positions (cryst. coord.)
         1           Au  tau(   1) = (  0.1111110  0.2222223  0.2796299  )
         2           Au  tau(   2) = (  0.0000000  0.0000000  0.0000000  )
         3           Au  tau(   3) = (  0.2222223  0.1111110  0.1398147  )
         4           Au  tau(   4) = (  0.1111110  0.5555555  0.2796299  )
         5           Au  tau(   5) = ( -0.0000000  0.3333333  0.0000000  )
         6           Au  tau(   6) = (  0.2222223  0.4444442  0.1398147  )
         7           Au  tau(   7) = (  0.1111110  0.8888888  0.2796299  )
         8           Au  tau(   8) = (  0.0000000  0.6666665  0.0000000  )
         9           Au  tau(   9) = (  0.2222223  0.7777775  0.1398147  )
        10           Au  tau(  10) = (  0.4444442  0.2222223  0.2796299  )
        11           Au  tau(  11) = (  0.3333333  0.0000000  0.0000000  )
        12           Au  tau(  12) = (  0.5555555  0.1111110  0.1398147  )
        13           Au  tau(  13) = (  0.4444442  0.5555555  0.2796299  )
        14           Au  tau(  14) = (  0.3333333  0.3333333  0.0000000  )
        15           Au  tau(  15) = (  0.5555555  0.4444442  0.1398147  )
        16           Au  tau(  16) = (  0.4444442  0.8888888  0.2796299  )
        17           Au  tau(  17) = (  0.3333333  0.6666665  0.0000000  )
        18           Au  tau(  18) = (  0.5555555  0.7777775  0.1398147  )
        19           Au  tau(  19) = (  0.7777775  0.2222223  0.2796299  )
        20           Au  tau(  20) = (  0.6666665  0.0000000  0.0000000  )
        21           Au  tau(  21) = (  0.8888888  0.1111110  0.1398147  )
        22           Au  tau(  22) = (  0.7777775  0.5555555  0.2796299  )
        23           Au  tau(  23) = (  0.6666665  0.3333333  0.0000000  )
        24           Au  tau(  24) = (  0.8888888  0.4444442  0.1398147  )
        25           Au  tau(  25) = (  0.7777775  0.8888888  0.2796299  )
        26           Au  tau(  26) = (  0.6666665  0.6666665  0.0000000  )
        27           Au  tau(  27) = (  0.8888888  0.7777775  0.1398147  )

     number of k points=     4  Gaussian smearing, width (Ry)=  0.0030
                       cart. coord. in units 2pi/alat
        k(    1) = (   0.0000000   0.0000000   0.0000000), wk =   0.1250000
        k(    2) = (   0.0000000   0.2886751   0.0000000), wk =   0.7500000
        k(    3) = (   0.0000000  -0.5773503   0.0000000), wk =   0.3750000
        k(    4) = (   0.2500000   0.4330127   0.0000000), wk =   0.7500000

                       cryst. coord.
        k(    1) = (   0.0000000   0.0000000   0.0000000), wk =   0.1250000
        k(    2) = (   0.0000000   0.2500000   0.0000000), wk =   0.7500000
        k(    3) = (   0.0000000  -0.5000000   0.0000000), wk =   0.3750000
        k(    4) = (   0.2500000   0.2500000   0.0000000), wk =   0.7500000

     Check: negative core charge=   -0.000003

     Initial potential from superposition of free atoms

     starting charge  296.99670, renormalised to  297.00000

     negative rho (up, down):  3.262E-05 0.000E+00
     Starting wfcs are  243 randomized atomic wfcs

     Self-consistent Calculation

     iteration #  1     ecut=    30.00 Ry     beta= 0.30
     Davidson diagonalization with overlap
     ethr =  1.00E-02,  avg # of iterations =  4.2

     Threshold (ethr) on eigenvalues was too large:
     Diagonalizing with lowered threshold

     Davidson diagonalization with overlap
     ethr =  5.09E-04,  avg # of iterations =  3.5

     negative rho (up, down):  1.876E-05 0.000E+00

     total energy              =   -3104.00247210 Ry
     estimated scf accuracy    <       1.68361284 Ry

[...]

     End of self-consistent calculation

          k = 0.0000 0.0000 0.0000 ( 21879 PWs)   bands (ev):

    -5.6238  -4.0407  -3.6863  -3.5607  -3.5607  -3.5607  -3.5607  -3.5606
    -3.5606  -2.9535  -2.9535  -2.9535  -2.9535  -2.9535  -2.9535  -2.7143
    -2.7143  -2.7143  -2.7142  -2.7142  -2.7142  -2.3624  -2.3624  -2.3624
    -2.3624  -2.3624  -2.3624  -2.3550  -2.3550  -2.3197  -2.3197  -2.3197
    -2.3197  -1.8906  -1.8906  -1.8906  -1.8906  -1.5439  -1.5439  -1.5439
    -1.5439  -1.5439  -1.5439  -1.4307  -1.4307  -1.3975  -1.3304  -1.3304
    -1.3304  -1.3304  -1.3304  -1.3304  -1.1354  -1.1354  -1.0837  -1.0837
    -0.9466  -0.9133  -0.9133  -0.9132  -0.9132  -0.9132  -0.9132  -0.9022
    -0.9022  -0.8858  -0.8858  -0.8858  -0.8857  -0.8857  -0.8857  -0.7952
    -0.7952  -0.7951  -0.7951  -0.7876  -0.7876  -0.7747  -0.7747  -0.2261
[...]
     atom   11 type  1   force =    -0.00000153   -0.00000411    0.03674349
     atom   12 type  1   force =     0.00000000   -0.00000224    0.00000684
     atom   13 type  1   force =    -0.00000362    0.00000209   -0.03674540
     atom   14 type  1   force =    -0.00000432    0.00000073    0.03674349
     atom   15 type  1   force =    -0.00000194    0.00000112    0.00000684
     atom   16 type  1   force =     0.00000000   -0.00000418   -0.03674540
     atom   17 type  1   force =     0.00000000    0.00000000    0.03674286
     atom   18 type  1   force =    -0.00000114   -0.00000066    0.00000821
     atom   19 type  1   force =     0.00000129   -0.00000075   -0.03674597
     atom   20 type  1   force =     0.00000153   -0.00000411    0.03674349
     atom   21 type  1   force =     0.00000078   -0.00000045    0.00000777
     atom   22 type  1   force =     0.00000000    0.00000149   -0.03674597
     atom   23 type  1   force =     0.00000000    0.00000000    0.03674498
     atom   24 type  1   force =     0.00000194    0.00000112    0.00000684
     atom   25 type  1   force =    -0.00000214   -0.00000123   -0.03674604
     atom   26 type  1   force =    -0.00000279    0.00000338    0.03674349
     atom   27 type  1   force =     0.00000000    0.00000090    0.00000777
     The ionic contribution  to forces
     atom    1 type  1   force =    -0.00001458    0.00029028   64.81427836
     atom    2 type  1   force =    -0.00001182   -0.00002446  -64.81415404
     atom    3 type  1   force =    -0.00010216   -0.00007799    0.00046170
     atom    4 type  1   force =     0.00044191    0.00025655   64.81389283
     atom    5 type  1   force =     0.00049991    0.00007883  -64.81452427
     atom    6 type  1   force =    -0.00002129    0.00016344    0.00022237
     atom    7 type  1   force =     0.00026120   -0.00015158   64.81427101
     atom    8 type  1   force =     0.00031841    0.00041395  -64.81452305
     atom    9 type  1   force =     0.00012717   -0.00007229    0.00021601
     atom   10 type  1   force =    -0.00014219   -0.00010421   64.81429057
     atom   11 type  1   force =    -0.00018268   -0.00050826  -64.81452305
     atom   12 type  1   force =     0.00000308   -0.00028952    0.00034497
     atom   13 type  1   force =    -0.00045727    0.00026492   64.81390104
     atom   14 type  1   force =    -0.00051496    0.00008233  -64.81453163
     atom   15 type  1   force =    -0.00023238    0.00013973    0.00033861
     atom   16 type  1   force =    -0.00000044   -0.00051130   64.81389247
     atom   17 type  1   force =    -0.00000359    0.00001742  -64.81434739
     atom   18 type  1   force =    -0.00014702   -0.00005957    0.00021294
     atom   19 type  1   force =     0.00016319   -0.00009435   64.81428804
     atom   20 type  1   force =     0.00019829   -0.00049788  -64.81452427
     atom   21 type  1   force =     0.00009496   -0.00006093    0.00046016
     atom   22 type  1   force =     0.00001904    0.00017609   64.81428926
     atom   23 type  1   force =     0.00001715    0.00000545  -64.81476531
     atom   24 type  1   force =     0.00024790    0.00014407    0.00034014
     atom   25 type  1   force =    -0.00025880   -0.00013335   64.81427669
     atom   26 type  1   force =    -0.00031549    0.00042783  -64.81453162
     atom   27 type  1   force =     0.00001244    0.00012482    0.00044745
     The local contribution  to forces
     atom    1 type  1   force =     0.00003496   -0.00029552  -64.75704556
     atom    2 type  1   force =     0.00000000   -0.00000000   64.75692969
     atom    3 type  1   force =     0.00010147    0.00009814   -0.00044351
     atom    4 type  1   force =    -0.00042530   -0.00025854  -64.75666360
     atom    5 type  1   force =    -0.00054625   -0.00006011   64.75730233
     atom    6 type  1   force =    -0.00003426   -0.00012183   -0.00020822
     atom    7 type  1   force =    -0.00022719    0.00015854  -64.75704556
     atom    8 type  1   force =    -0.00034889   -0.00040195   64.75730233
     atom    9 type  1   force =    -0.00018013    0.00013082   -0.00020822
     atom   10 type  1   force =     0.00022011    0.00008671  -64.75706488
     atom   11 type  1   force =     0.00022106    0.00050312   64.75730233
     atom   12 type  1   force =    -0.00001103    0.00033800   -0.00033335
     atom   13 type  1   force =     0.00049522   -0.00025854  -64.75666360
     atom   14 type  1   force =     0.00054625   -0.00006011   64.75730233
     atom   15 type  1   force =     0.00025294   -0.00011921   -0.00033335
     atom   16 type  1   force =     0.00003496    0.00053865  -64.75666360
     atom   17 type  1   force =     0.00000000    0.00002737   64.75711700
     atom   18 type  1   force =     0.00011161    0.00013082   -0.00020822
     atom   19 type  1   force =    -0.00010277    0.00008671  -64.75706488
     atom   20 type  1   force =    -0.00017365    0.00050312   64.75730233
     atom   21 type  1   force =    -0.00012353    0.00009814   -0.00044351
     atom   22 type  1   force =     0.00005867   -0.00019291  -64.75706488
     atom   23 type  1   force =     0.00002371    0.00001369   64.75754563
     atom   24 type  1   force =    -0.00027500   -0.00011921   -0.00033335
     atom   25 type  1   force =     0.00029711    0.00015854  -64.75704556
     atom   26 type  1   force =     0.00034889   -0.00040195   64.75730233
     atom   27 type  1   force =    -0.00001103   -0.00009671   -0.00044351
     The core correction contribution to forces
     atom    1 type  1   force =     0.00001114    0.00000169   -0.02048804
     atom    2 type  1   force =    -0.00000000   -0.00000000    0.02053078
     atom    3 type  1   force =    -0.00000356    0.00001079   -0.00001413
     atom    4 type  1   force =     0.00001016    0.00000172   -0.02048794
     atom    5 type  1   force =    -0.00000497    0.00000627    0.02053091
     atom    6 type  1   force =    -0.00001113    0.00001540   -0.00001389
     atom    7 type  1   force =     0.00001062    0.00000259   -0.02048804
     atom    8 type  1   force =    -0.00000461    0.00000564    0.02053091
     atom    9 type  1   force =    -0.00001091    0.00001501   -0.00001389
     atom   10 type  1   force =     0.00001911   -0.00000183   -0.02048829
     atom   11 type  1   force =     0.00000791    0.00000117    0.02053091
     atom   12 type  1   force =    -0.00000358    0.00001073   -0.00001350
     atom   13 type  1   force =     0.00001212    0.00000172   -0.02048794
     atom   14 type  1   force =     0.00000497    0.00000627    0.02053091
     atom   15 type  1   force =    -0.00000363    0.00001081   -0.00001350
     atom   16 type  1   force =     0.00001114    0.00000343   -0.02048793
     atom   17 type  1   force =    -0.00000000    0.00000872    0.02053076
     atom   18 type  1   force =    -0.00001136    0.00001501   -0.00001389
     atom   19 type  1   force =     0.00001828   -0.00000183   -0.02048828
     atom   20 type  1   force =     0.00000719    0.00000117    0.02053091
     atom   21 type  1   force =    -0.00000360    0.00001080   -0.00001413
     atom   22 type  1   force =     0.00001869   -0.00000255   -0.02048829
     atom   23 type  1   force =     0.00000755    0.00000436    0.02053115
     atom   24 type  1   force =    -0.00000353    0.00001082   -0.00001351
     atom   25 type  1   force =     0.00001167    0.00000259   -0.02048804
     atom   26 type  1   force =     0.00000461    0.00000564    0.02053091
     atom   27 type  1   force =    -0.00000358    0.00001077   -0.00001413
     The Hubbard contrib.    to forces
     atom    1 type  1   force =     0.00000000    0.00000000    0.00000000
     atom    2 type  1   force =     0.00000000    0.00000000    0.00000000
     atom    3 type  1   force =     0.00000000    0.00000000    0.00000000
     atom    4 type  1   force =     0.00000000    0.00000000    0.00000000
     atom    5 type  1   force =     0.00000000    0.00000000    0.00000000
     atom    6 type  1   force =     0.00000000    0.00000000    0.00000000
     atom    7 type  1   force =     0.00000000    0.00000000    0.00000000
     atom    8 type  1   force =     0.00000000    0.00000000    0.00000000
     atom    9 type  1   force =     0.00000000    0.00000000    0.00000000
     atom   10 type  1   force =     0.00000000    0.00000000    0.00000000
     atom   11 type  1   force =     0.00000000    0.00000000    0.00000000
     atom   12 type  1   force =     0.00000000    0.00000000    0.00000000
     atom   13 type  1   force =     0.00000000    0.00000000    0.00000000
     atom   14 type  1   force =     0.00000000    0.00000000    0.00000000
     atom   15 type  1   force =     0.00000000    0.00000000    0.00000000
     atom   16 type  1   force =     0.00000000    0.00000000    0.00000000
     atom   17 type  1   force =     0.00000000    0.00000000    0.00000000
     atom   18 type  1   force =     0.00000000    0.00000000    0.00000000
     atom   19 type  1   force =     0.00000000    0.00000000    0.00000000
     atom   20 type  1   force =     0.00000000    0.00000000    0.00000000
     atom   21 type  1   force =     0.00000000    0.00000000    0.00000000
     atom   22 type  1   force =     0.00000000    0.00000000    0.00000000
     atom   23 type  1   force =     0.00000000    0.00000000    0.00000000
     atom   24 type  1   force =     0.00000000    0.00000000    0.00000000
     atom   25 type  1   force =     0.00000000    0.00000000    0.00000000
     atom   26 type  1   force =     0.00000000    0.00000000    0.00000000
     atom   27 type  1   force =     0.00000000    0.00000000    0.00000000
     The SCF correction term to forces
     atom    1 type  1   force =     0.00000000    0.00001042    0.00004102
     atom    2 type  1   force =    -0.00000000    0.00000000   -0.00006088
     atom    3 type  1   force =    -0.00000848   -0.00000490   -0.00000664
     atom    4 type  1   force =     0.00001627    0.00000939    0.00003886
     atom    5 type  1   force =     0.00001799    0.00000480   -0.00005990
     atom    6 type  1   force =    -0.00000000    0.00001557   -0.00000314
     atom    7 type  1   force =     0.00000902   -0.00000521    0.00004102
     atom    8 type  1   force =     0.00001315    0.00001318   -0.00005990
     atom    9 type  1   force =     0.00001349   -0.00000779   -0.00000314
     atom   10 type  1   force =    -0.00000746   -0.00000431    0.00004980
     atom   11 type  1   force =    -0.00000484   -0.00001798   -0.00005990
     atom   12 type  1   force =     0.00000000   -0.00002632   -0.00000142
     atom   13 type  1   force =    -0.00001627    0.00000939    0.00003886
     atom   14 type  1   force =    -0.00001799    0.00000480   -0.00005990
     atom   15 type  1   force =    -0.00002280    0.00001316   -0.00000142
     atom   16 type  1   force =     0.00000000   -0.00001879    0.00003886
     atom   17 type  1   force =    -0.00000000    0.00000000   -0.00005002
     atom   18 type  1   force =    -0.00001349   -0.00000779   -0.00000314
     atom   19 type  1   force =     0.00000746   -0.00000431    0.00004980
     atom   20 type  1   force =     0.00000484   -0.00001798   -0.00005990
     atom   21 type  1   force =     0.00000848   -0.00000490   -0.00000664
     atom   22 type  1   force =     0.00000000    0.00000862    0.00004980
     atom   23 type  1   force =     0.00000000   -0.00000000   -0.00006796
     atom   24 type  1   force =     0.00002280    0.00001316   -0.00000142
     atom   25 type  1   force =    -0.00000902   -0.00000521    0.00004102
     atom   26 type  1   force =    -0.00001315    0.00001318   -0.00005990
     atom   27 type  1   force =     0.00000000    0.00000979   -0.00000664

     Total force =     0.000110     Total SCF correction =     0.000237
     SCF correction compared to forces is large: reduce conv_thr to get better values

     Computing stress (Cartesian axis) and pressure

     negative rho (up, down):  6.708E-05 0.000E+00
          total   stress  (Ry/bohr**3)                   (kbar)     P=      -28.63
  -0.00029071  -0.00000000   0.00000000          -42.77       -0.00        0.00
  -0.00000000  -0.00029071   0.00000000           -0.00      -42.77        0.00
   0.00000000   0.00000000  -0.00000239            0.00        0.00       -0.35

     kinetic stress (kbar)   8407.27      0.00      0.00
                                0.00   8407.27     -0.00
                                0.00      0.00   8539.09

     local   stress (kbar)-151859.51     -0.00     -0.00
                               -0.00-151859.51      0.00
                               -0.00      0.00 172600.44

     nonloc. stress (kbar)  -5355.64     -0.00      0.00
                               -0.00  -5355.64      0.00
                                0.00      0.00  -5357.41

     hartree stress (kbar)  80523.63      0.00     -0.00
                                0.00  80523.63      0.00
                               -0.00      0.00 -77375.23

     exc-cor stress (kbar)  21857.87      0.00     -0.00
                                0.00  21857.87      0.00
                               -0.00      0.00  21850.88

     corecor stress (kbar) -25216.39     -0.00      0.00
                               -0.00 -25216.39     -0.00
                                0.00     -0.00 -25230.71

     ewald   stress (kbar)  71599.99      0.00      0.00
                                0.00  71599.99     -0.00
                                0.00     -0.00 -95027.42

     hubbard stress (kbar)      0.00      0.00      0.00
                                0.00      0.00      0.00
                                0.00      0.00      0.00

     DFT-D   stress (kbar)      0.00      0.00      0.00
                                0.00      0.00      0.00
                                0.00      0.00      0.00

     XDM     stress (kbar)      0.00      0.00      0.00
                                0.00      0.00      0.00
                                0.00      0.00      0.00

     dft-nl  stress (kbar)      0.00      0.00      0.00
                                0.00      0.00      0.00
                                0.00      0.00      0.00

     TS-vdW  stress (kbar)      0.00      0.00      0.00
                                0.00      0.00      0.00
                                0.00      0.00      0.00

     Energy error            =      2.7E-05
     Gradient error          =      3.0E-05

     bfgs converged in   7 scf cycles and   6 bfgs steps
     (criteria: energy <  1.0E-04 Ry, force <  1.0E-03 Ry/Bohr)

     End of BFGS Geometry Optimization

     Final energy   =   -3104.1962825068 Ry

     File ./surface.bfgs deleted, as requested
Begin final coordinates

ATOMIC_POSITIONS (angstrom)
Au           -0.0000014748        1.7029124517        4.8359622230
Au            0.0000000000        0.0000000000       -0.0193213766
Au            1.4747770281        0.8514612112        2.4082776174
Au           -1.4747884000        4.2572957545        4.8359378674
Au           -1.4747905387        2.5543788217       -0.0193453869
Au            0.0000014748        3.4058347685        2.4082696804
Au           -2.9495557686        6.8116903482        4.8359622230
Au           -2.9495573189        5.1087498143       -0.0193453869
Au           -1.4747773571        5.9602266354        2.4082696804
Au            2.9495483502        1.7029242369        4.8359572292
Au            2.9495522199        0.0000166609       -0.0193453869
Au            4.4243204748        0.8514678810        2.4082746343
Au            1.4747854504        4.2572957545        4.8359378674
Au            1.4747905387        2.5543788217       -0.0193453869
Au            2.9495545276        3.4058374308        2.4082746343
Au           -0.0000014748        6.8117016393        4.8359378674
Au            0.0000000000        5.1087635313       -0.0193377147
Au            1.4747803067        5.9602266354        2.4082696804
Au            5.8990867002        1.7029242369        4.8359572292
Au            5.8990857801        0.0000166609       -0.0193453869
Au            7.3738639215        0.8514612112        2.4082776174
Au            4.4243175252        4.2572993775        4.8359572292
Au            4.4243190000        2.5543817656       -0.0193593421
Au            5.8990864220        3.4058374308        2.4082746343
Au            2.9495528190        6.8116903482        4.8359622230
Au            2.9495573189        5.1087498143       -0.0193453869
Au            4.4243204748        5.9602203200        2.4082776174
End final coordinates

     Writing output data file ./surface.save/

     General routines

     Parallel routines

   This run was terminated on:  17:56:18   9Dec2021

   JOB DONE.